!Mini-Circuits Laboratory
!S-Parameters
!Created:           10/5/2021 at 12:33:01 PM
!MODEL:             BFCQ-1162+
!S/N:               Unit# 1
!Temperature:       25C
!POWER IN           0dBm
!Remark: Tested on TB-BFCQ-1162+. Connector and thruline deembedded. 
# Hz S DB R 50.0 
!freq dBS11 angS11 dBS21 angS21 dBS12 angS12 dBS22 angS22
10000000.0 -0.021175007238711227 179.9793387428723 -79.96017220830245 -126.74256476579507 -85.14337790830245 86.12933263420493 -0.03536226482036717 179.77736827984268
100000000.0 -0.000498172271311714 179.19684673374218 -92.1331617322994 121.58276015165698 -91.7728530322994 66.37215215165699 -0.07440265434078384 179.03370480287796
200000000.0 -0.006086187956652597 178.39920805495558 -85.56725724462194 90.49292637161686 -85.31722804462191 99.40572637161686 -0.08127715694717788 178.25691814196887
250000000.0 -0.0160075167184076 178.00585481502915 -84.30985479011682 80.16487688121518 -84.22720949011682 83.29705688121517 -0.07545769618407154 177.82207990722847
300000000.0 -0.009161654687600537 177.54599883343343 -80.81649476307312 72.80023986065937 -83.03748916307313 101.82264986065938 -0.08647845701003032 177.4432073195262
350000000.0 -0.011816838068437247 177.1291287505141 -85.43612168391454 82.4195570697293 -82.33141458391451 85.95061706972928 -0.08274669153950609 176.9943532451132
400000000.0 -0.009096047276618937 176.66051117294657 -80.52715970796127 72.45222826237762 -80.59379620796128 93.21967826237763 -0.08182958457662048 176.58285852408338
450000000.0 -0.006684059390065542 176.23234525422237 -79.34464348343457 84.90920686230145 -79.38981218343456 82.01160686230146 -0.08041595840313809 176.15325601536856
500000000.0 -0.007020193324477679 175.8271173529523 -78.54160546685952 83.90820201513692 -78.80496566685953 86.18524201513691 -0.07806010584959615 175.71004223384668
550000000.0 0.005018931913280086 175.45170731225826 -77.17287078939107 83.81802759132718 -78.34953058939107 84.87067759132721 -0.08954833726447328 175.2741105126313
600000000.0 -0.0012086270129345147 175.0680966704969 -77.10295269394831 79.42190185300979 -76.7739890939483 83.0010018530098 -0.090702822492285 174.83547431611584
650000000.0 -0.006829807363687924 174.67522942516868 -76.36396384187418 81.60480580684141 -76.97656114187419 84.77313580684141 -0.09449946723397745 174.40732721977014
700000000.0 -0.014032120023511655 174.23767502495022 -75.8127239745275 83.06507834397004 -75.34909327452749 84.11231834397005 -0.09469357201110018 173.9861191318305
750000000.0 -0.020098505064604498 173.78390098342936 -75.35873167675184 81.6956180502426 -75.99000817675184 85.85852805024263 -0.09658530642254372 173.55517023561637
800000000.0 -0.0197307474168785 173.28485876801102 -75.48441430031781 83.73974884656428 -75.6255225003178 77.65450884656427 -0.10120832365798518 173.14985463637308
850000000.0 -0.019088879418068402 172.8261983465615 -74.38347061560825 82.07980787669364 -74.57421481560826 80.79186787669364 -0.10335273768842401 172.72232925741872
900000000.0 -0.012062602215457388 172.41487792980158 -74.1205802128316 78.65121670506888 -74.1471643128316 78.9166467050689 -0.10530792318570734 172.28724744253998
950000000.0 -0.0035938351821874436 172.03897904343197 -73.56084915324251 80.91287055693813 -73.0055847532425 81.24384055693812 -0.10944769485578032 171.889607802227
1000000000.0 0.00061517747557506 171.69898183631847 -72.99206821724542 79.17352109154714 -73.67525301724542 79.58352109154711 -0.11463780247168068 171.44280012249172
1050000000.0 0.0017811769466034434 171.3154497175292 -72.94703592521758 78.57487051528605 -72.72126242521759 80.59528051528602 -0.12376934824122464 171.01952195033454
1100000000.0 -0.018068759066699996 170.89846892813725 -72.490865297063 81.58005717812561 -72.55082009706298 78.28183717812561 -0.11910410747912019 170.59770523748404
1150000000.0 -0.023758147261356527 170.43963669567978 -72.09176651770727 80.8947674466562 -71.95477531770729 78.6770774466562 -0.1243401105294914 170.1760599449853
1200000000.0 -0.027766746797673506 169.94361833469367 -71.44979067200616 79.58624169276182 -71.78469267200616 79.03717169276182 -0.12479214195094247 169.74006527078188
1250000000.0 -0.02033145457788855 169.5065701981747 -71.12566142496293 78.14099455980946 -71.48581962496294 76.86230455980946 -0.12648507991092867 169.27149701482136
1300000000.0 -0.004847203659840072 169.05660352742325 -70.99715955484966 77.54413126430184 -71.02603615484966 79.22481126430183 -0.12801822653256079 168.8680187227717
1350000000.0 0.008840028370472456 168.67635235518327 -70.44791874168371 76.95999677878861 -70.43199924168371 78.17524677878859 -0.13395419595731256 168.44825735321965
1400000000.0 0.009347338199451109 168.32170347173468 -70.74184619964284 78.43832332040965 -70.31448159964283 78.44688332040964 -0.1340953215100225 168.01809526491127
1450000000.0 0.0014269630686686602 167.99751057742694 -70.1899449430856 77.42124400911614 -70.53264144308562 77.94886400911614 -0.13401530577354032 167.56730793743858
1500000000.0 -0.01299788614037987 167.57936717085016 -70.00960253928793 76.93720159687803 -69.86572313928792 78.48990159687806 -0.13559420267269853 167.17272966649455
1550000000.0 -0.02272763041945822 167.1252670028656 -69.32996303530675 76.90455041840272 -69.85661203530675 77.23088041840275 -0.13880973744686745 166.73347123584207
1600000000.0 -0.027593196883465388 166.62592578642656 -69.34748222248511 76.49784692321002 -69.54482302248509 74.22386692321002 -0.13786314599192845 166.2878702362077
1650000000.0 -0.018736552862352256 166.10123759962718 -69.07144350741122 75.49500370579285 -69.25412600741122 74.71460370579285 -0.1448188786953979 165.86153875365721
1700000000.0 -0.013483318377068298 165.59961784462874 -68.78974496950198 75.24949373993617 -69.06099596950199 75.16120373993617 -0.140914271061098 165.4265865603847
1750000000.0 0.0062705920570196435 165.19818473845964 -68.62308658097578 74.6747904515685 -68.55695388097577 74.6789704515685 -0.1444199442275893 164.98417113587956
1800000000.0 0.020805204922394224 164.84872600588739 -68.50145412368478 75.1110702857133 -68.42739462368478 75.97667028571324 -0.14784202027107948 164.53646346198474
1850000000.0 0.022762624619196745 164.54947042157258 -68.23924925319896 73.57632009252487 -67.99337965319896 73.81059009252489 -0.14915098934860888 164.0956163919043
1900000000.0 0.007102919833440442 164.20509393129967 -68.02375483448019 74.2371168568769 -68.2886387344802 72.4317568568769 -0.14768538227049094 163.64911610815082
1950000000.0 -0.007203100773777796 163.77180770032834 -67.90160721619077 72.37244097748795 -67.90523061619078 72.88505097748795 -0.14980988563902703 163.18011186929672
2000000000.0 -0.022090466932716178 163.22727328625714 -67.81869053996941 69.31254917476787 -67.40833943996941 71.34676917476789 -0.14671152216410197 162.76208531322612
2050000000.0 -0.02999330670290129 162.67797250287487 -67.32584021415772 73.17398257687148 -67.48834621415772 71.77938257687146 -0.14486924774442664 162.32360131963404
2100000000.0 -0.015801019406743867 162.1418300174363 -67.20180435243411 70.67376811093366 -67.4271345524341 70.86356811093367 -0.14675327305874752 161.84620814475872
2150000000.0 0.005804430692320369 161.68834976705662 -66.9754733006556 71.79936771470783 -67.16215660065559 69.71802771470784 -0.14557919009874934 161.38916261912053
2200000000.0 0.025508329524394083 161.2830932670576 -66.82930137854481 71.11201249326929 -66.76826657854483 71.75960249326933 -0.14255342094342868 160.96496449787747
2250000000.0 0.030714817173099224 160.9982242591761 -66.99116931312962 70.77130278582027 -66.80759201312961 70.98861278582027 -0.13864458488910675 160.4935529318499
2300000000.0 0.018939145589828225 160.69968166454356 -66.72497124913947 70.08042142304875 -66.75066404913947 69.20131142304876 -0.13953393587965726 160.0198719393841
2350000000.0 -0.0048304421558321734 160.29280143665105 -66.34270139452492 68.77200899375653 -66.78080379452493 68.86089899375654 -0.1337550766600089 159.57118866731054
2400000000.0 -0.019902863768626933 159.83158461680998 -66.49793352253164 69.27017734459288 -66.36849122253165 70.28903734459286 -0.13856438199867202 159.10275950089598
2450000000.0 -0.029753151745869986 159.24430973001276 -66.07913686828824 68.93751340444219 -66.27830976828824 69.40460340444218 -0.13478592014091104 158.6454309114288
2500000000.0 -0.02287562269882446 158.67271699955586 -65.93858024394089 69.05676639485604 -65.95252794394091 68.53873639485602 -0.1329025439168115 158.16006826881252
2550000000.0 -0.01105697046229385 158.12681191293066 -65.95883448640626 66.97130949712904 -65.90056098640625 69.03566949712906 -0.12719353933121516 157.7432428112985
2600000000.0 0.012154276817352464 157.71087964787236 -65.9100721077969 67.67209090029444 -65.9761909077969 66.95227090029447 -0.12758487662981927 157.2320492277405
2650000000.0 0.03381261357308148 157.3966054335346 -65.89081391699587 68.30269041118135 -65.71845241699587 66.77971041118136 -0.13062422413654132 156.77158506713994
2700000000.0 0.03171946841131244 157.10917299188083 -65.78089430921194 66.30969516760898 -65.63009880921194 66.22433516760898 -0.12636050280610547 156.3347593803067
2750000000.0 0.013711840728195942 156.788814719568 -65.69154552927621 66.2331708223125 -65.67933352927622 66.11167082231252 -0.1247193538063524 155.87079246996535
2800000000.0 -0.013112020152668236 156.35878034081787 -65.53577610576357 64.59895484545872 -65.6228505057636 65.17083484545873 -0.12295953763743024 155.38400582379344
2850000000.0 -0.03201925480490078 155.80983271136148 -65.30172709363708 65.83674965836138 -65.55022929363707 65.66436965836138 -0.12332301511115923 154.89994261199465
2900000000.0 -0.03494750398741729 155.17151095907423 -65.5408725118841 64.51127107905849 -65.49556891188409 65.5523210790585 -0.11840237687448919 154.43818065634167
2950000000.0 -0.023676298543995812 154.6036846256782 -65.25930374470566 65.23597802670363 -65.30727584470567 64.89059802670363 -0.11790484297686099 153.98192693795693
3000000000.0 0.008986670530788146 154.1235291963882 -65.21021877491208 63.15951364249483 -65.27227777491208 63.96536364249482 -0.12027024642698352 153.4957998832258
3050000000.0 0.032609708096781716 153.7804475753811 -65.07521092471053 64.82147547751207 -65.21793202471054 63.19831547751205 -0.11752656433433935 153.06601053563796
3100000000.0 0.03451509721671815 153.49552470300458 -65.1880695181207 63.65485723861958 -65.2858900181207 62.978817238619584 -0.11524279468653281 152.57374533878718
3150000000.0 0.020580943749030755 153.2190511763138 -65.06175286383987 63.607839402625814 -64.91828556383987 62.08906940262581 -0.10994376184200513 152.0847747822578
3200000000.0 -0.009315693762823807 152.83333939688535 -65.0425543370852 63.26809035947056 -64.8811112370852 62.817690359470575 -0.10818264128673356 151.64981827434704
3250000000.0 -0.03316319071850242 152.3531111339989 -65.12076641208155 61.65624039374146 -64.97000171208155 61.61108039374147 -0.10992482236877735 151.1394516300771
3300000000.0 -0.05399004879147642 151.7444878065993 -64.87599366224256 60.72410068187679 -64.90821366224255 61.71202068187683 -0.09848120941787433 150.6721077919815
3350000000.0 -0.03829343595772522 151.10247250432454 -65.00290656025665 62.598948701376656 -64.92700596025665 61.51027870137665 -0.10361478319764533 150.22715594484268
3400000000.0 -0.014164138305417047 150.58351775355771 -64.96712779926693 60.44858518094408 -64.69715239926694 60.59331518094408 -0.10003309397754033 149.74203164411253
3450000000.0 0.0038171566319981595 150.1512469127725 -64.93473842848327 60.566786294707526 -64.72753892848327 58.50948629470755 -0.09655564043416756 149.28525659162273
3500000000.0 0.020207232063541785 149.83102211542717 -64.80967372470224 60.301949854162885 -64.76284572470223 60.75687985416287 -0.09646573864197129 148.8247046239435
3550000000.0 0.018493154764361124 149.6050470783995 -64.86141357066515 60.19152649707625 -64.80470537066516 59.191126497076276 -0.09402365295095515 148.34135017367998
3600000000.0 -0.005937947401739656 149.29056532674397 -64.96539839637683 58.90427916534362 -64.70338419637683 58.50537916534361 -0.09513911064084626 147.86305301494073
3650000000.0 -0.035370211565728574 148.83858125791718 -64.90858381708117 58.42818127613264 -64.65101871708117 59.02026127613266 -0.09678650041809718 147.37528383363932
3700000000.0 -0.06211092689928543 148.2034524947381 -65.0210481707414 59.98122619151469 -64.71970517074139 58.7351661915147 -0.08795593104106764 146.95528327922986
3750000000.0 -0.06174535875883992 147.56483356469565 -64.91069428513359 57.420405041386864 -64.72883728513358 57.86329504138687 -0.09337134944091606 146.47932435469792
3800000000.0 -0.04748178054112043 146.93244814978715 -64.91927987361166 57.928420563159506 -65.14919817361167 56.82565056315949 -0.08669879471813505 145.98047620635631
3850000000.0 -0.014136399251171454 146.419531026524 -64.86567267141287 56.84641059534619 -64.87819927141285 57.8026805953462 -0.08266071077784237 145.5591559979536
3900000000.0 0.01109120594122726 146.10565050703562 -65.03394763754268 57.664799272129066 -64.7717693375427 57.82468927212908 -0.0847076847975494 145.05104242017921
3950000000.0 0.020183700236862875 145.8440717044502 -65.13919427834135 56.66629276901961 -64.98718777834135 56.610812769019624 -0.08307012742576325 144.6010826592121
4000000000.0 0.0002908199423167205 145.57069850401004 -65.10742099345188 55.33938041140764 -64.80973589345189 55.62761041140766 -0.0838022256110848 144.10763910242045
4050000000.0 -0.03352502136918956 145.19249125060847 -65.2089434690718 57.75687905785173 -65.0237063690718 56.73436905785172 -0.08314627991822512 143.59304535054986
4100000000.0 -0.06748383934219172 144.63257372736408 -65.38267682067895 55.04558673513864 -65.38102452067895 55.196356735138664 -0.09305448827624319 143.11596055273856
4150000000.0 -0.09123904077342818 143.97672866560137 -65.14552121377717 55.460482795587765 -65.15130521377718 54.53020279558777 -0.09672606028003577 142.5661493387669
4200000000.0 -0.08565866577064557 143.2417424339832 -65.35333039752118 54.09729093723079 -65.38786999752116 53.78147093723077 -0.09423438704284332 142.1016697328836
4250000000.0 -0.061572011564614934 142.6535902004039 -65.457507566465 54.666491169882455 -65.59522236646501 53.666231169882494 -0.10160279556861021 141.61965318701226
4300000000.0 -0.03007921849728995 142.23158711516314 -65.62404144489155 54.6657630116242 -65.65220674489156 52.84041301162421 -0.10305736936948041 141.10691491492267
4350000000.0 -0.007793866362992363 141.94545538629615 -65.47050413525916 53.11193071837301 -65.81369843525917 53.73049071837302 -0.10350321774473024 140.64983988941432
4400000000.0 -0.016859633668628804 141.7652858362383 -65.83178385983607 52.65385956398038 -65.82297865983607 53.74255956398041 -0.10383767293062356 140.13355595527216
4450000000.0 -0.04203929926513758 141.45455034927008 -66.44939596441381 51.612314923844266 -66.0653152644138 49.977834923844284 -0.1019128694011533 139.6825886483987
4500000000.0 -0.07458237300381673 141.0177782687319 -65.87708698475657 53.63399720494823 -66.08426118475658 54.36891720494824 -0.11030447336700586 139.2129202895985
4550000000.0 -0.10272979034442133 140.38983480226491 -66.38946825941163 52.13989605378845 -66.29580335941162 52.43008605378845 -0.10546251441561348 138.67760947064073
4600000000.0 -0.10824605132862272 139.65667964195535 -66.45962204952538 52.57616315484251 -66.39038944952537 52.086323154842496 -0.09955929932940155 138.26223206824332
4650000000.0 -0.08537823590164711 139.02256684707294 -66.76827546336192 51.60802179866706 -66.82958686336191 52.51113179866705 -0.10673500246965767 137.75754715031778
4700000000.0 -0.048268168756547644 138.504178186267 -66.79935837649244 52.34678808505829 -66.88719127649244 50.932448085058276 -0.10388273183795406 137.23233517312914
4750000000.0 -0.017310622315032942 138.1747859641057 -67.3539898663009 53.84331155302152 -67.32310826630092 49.84611155302152 -0.10673528793633612 136.7715232129122
4800000000.0 -0.009409670062889404 137.90452238529727 -67.80991888501467 51.65504925870295 -67.54622108501468 51.55160925870295 -0.10597255551698827 136.2507097072353
4850000000.0 -0.024938738635036706 137.67056988291074 -68.11199339203897 51.052140915836034 -68.01420929203897 50.21830091583605 -0.11204345437151043 135.779099089979
4900000000.0 -0.06349697751939672 137.25083310278322 -68.31771848610957 51.42895440293592 -68.45907808610957 52.43796440293594 -0.11608274806845897 135.2317571941666
4950000000.0 -0.09457099297868857 136.65252284187082 -68.90802592512627 50.71767526487934 -68.74213652512626 50.435335264879335 -0.10747729984753851 134.7840100300026
5000000000.0 -0.11265469458553298 135.94937735355447 -69.13820746455653 50.36042352219022 -69.23353096455654 50.86234352219021 -0.11307234688891943 134.31549396172224
5050000000.0 -0.10116787809066356 135.18985530900642 -69.8896024602388 51.9850116191072 -69.60292096023879 48.1548516191072 -0.11999330186574225 133.734618220571
5100000000.0 -0.06600867532247306 134.5627109042744 -70.49752461725207 49.666459107829844 -70.17152551725208 50.644779107829855 -0.11141831441906905 133.2506725723217
5150000000.0 -0.03338835666373107 134.1251548042158 -70.77396585902527 53.99273634609606 -70.84565985902528 52.000986346096056 -0.1218795088890766 132.75614689261377
5200000000.0 -0.007083076557452397 133.8108534141343 -71.72900414289 55.44654657435311 -71.55581094289 51.02120657435311 -0.1270026334674541 132.20528372901362
5250000000.0 -0.012743551123613627 133.55540364507536 -72.60650948747903 52.8580948310305 -72.22941318747903 55.528214831030496 -0.12844110749397447 131.71720311416587
5300000000.0 -0.04392693995650795 133.16548575140104 -73.54620975385126 54.67672698999377 -73.06685175385125 57.832036989993775 -0.12989841347186215 131.18160181721072
5350000000.0 -0.0787726869658894 132.62405258814843 -74.84492281547988 56.76688956404917 -74.31219811547989 55.48377956404918 -0.1325549403423809 130.69019582034375
5400000000.0 -0.110093728910316 131.9136435438409 -76.7095159153989 68.45217427630305 -76.6718744153989 55.03682427630304 -0.14789902631481894 130.1139241218412
5450000000.0 -0.1087517981864107 131.0812147734194 -77.67109696759191 59.454047274221246 -78.1215143675919 65.76032727422125 -0.14644594973269212 129.53790494408983
5500000000.0 -0.0826904258156769 130.35986543599878 -79.92516977565012 77.02347974133457 -79.75309157565013 71.77217974133457 -0.14944899082060892 129.0757632818091
5550000000.0 -0.042962381760816515 129.71662321195507 -80.75161559919624 88.59177837828362 -82.48119559919627 83.36987837828362 -0.16202951630057816 128.50008073861318
5600000000.0 -0.0032614065115406875 129.37140051449867 -83.99701842474194 111.52520991149579 -84.42054192474191 91.0622399114958 -0.15582661677299686 127.93019182990209
5650000000.0 0.0018617682613091251 129.0661338852678 -83.3275314195831 149.80572897305606 -85.0986476195831 133.01164897305605 -0.16499178905560793 127.43654861636061
5700000000.0 -0.014447677970922078 128.71932602901757 -79.77743310572556 174.02030290882286 -82.24776420572556 -178.78205709117714 -0.16992295466413504 126.83874988419852
5750000000.0 -0.0575061330053445 128.28182325583384 -78.26110805594185 -175.6693632250861 -78.59282025594185 -170.39126322508608 -0.17933217971610513 126.28953698790082
5800000000.0 -0.10057403763212219 127.54530866007723 -75.12474175551917 -166.10585248997506 -75.21451265551917 -175.76018348997502 -0.1811392065743418 125.68740947694847
5850000000.0 -0.11226538430919851 126.69820306664619 -74.27119446787911 -169.07352587543556 -73.98361966787911 -167.12442987543557 -0.18642338032571884 125.16314230781188
5900000000.0 -0.10526138452836369 125.81112988634328 -71.89331854038271 -163.4330593453913 -72.0070941403827 -160.70740634539135 -0.19875323650267132 124.60403839779373
5950000000.0 -0.05872783635241258 125.04371619941347 -69.99644465436154 -159.78189493201302 -70.04745035436153 -159.300442832013 -0.19766428877000183 123.96527706006401
6000000000.0 -0.0171218933607244 124.53726233275589 -68.69885671631036 -160.87579397699008 -69.17965451631036 -156.47459697699009 -0.19875385815487243 123.4030888706554
6050000000.0 0.003023737918494162 124.11227325420384 -67.76337233655879 -158.1129786259271 -68.23188923655881 -158.62455762592705 -0.2081886105709915 122.80356338090269
6100000000.0 0.0030004839674653587 123.79228979331555 -67.01910482146033 -160.8974165470289 -66.69126872146035 -159.5590315470289 -0.21281145044695804 122.18798617027869
6150000000.0 -0.04202424222296533 123.36044630875865 -65.84130878760601 -157.81538544160813 -65.50457998760601 -159.00996544160816 -0.2170022929583121 121.59505089660436
6200000000.0 -0.08345185467892687 122.65314426995403 -64.65969597946652 -156.60389572221743 -64.85351007946652 -156.74537572221743 -0.21907309874853703 120.97417054173738
6250000000.0 -0.12529387992348007 121.81185305364319 -63.67010069251161 -158.78024117404718 -63.70038679251161 -157.34198117404716 -0.2213174709950106 120.36759623377945
6300000000.0 -0.12639641021876946 120.78749410929211 -62.80522765963157 -157.564051172472 -62.879679759631564 -158.59061117247202 -0.23094816732844584 119.67277243366466
6350000000.0 -0.09436443903759856 119.87697432665327 -61.93693786831275 -158.31517444836285 -61.98964326831274 -158.03496444836284 -0.2363266001114563 119.02119472922185
6400000000.0 -0.056668982028195015 119.08756185325649 -61.20516570798002 -158.76892461758231 -61.31595720798003 -157.9569746175823 -0.2394135476498968 118.3921565420123
6450000000.0 -0.007745377093107525 118.54357490149921 -60.44094307575978 -158.23039256898346 -60.4239780757598 -158.63108256898346 -0.24644564936591504 117.70585202652933
6500000000.0 -0.006041781261285572 118.16501308169406 -59.82240994319405 -158.67737679578133 -59.69068514319406 -158.53983679578133 -0.24407111104887447 117.0304007483922
6550000000.0 -0.026804892014468954 117.65103729430795 -59.22590506457557 -159.40306541787277 -59.022709364575576 -159.37728541787277 -0.24556288261589623 116.32671913992127
6600000000.0 -0.06639823408531331 117.05835225075151 -58.55039412505759 -159.52645050733298 -58.18413992505758 -159.351710507333 -0.24643337909805693 115.64242970902937
6650000000.0 -0.11854617682928635 116.15006685183432 -57.827299882088916 -160.98758471496492 -57.70065708208891 -158.85248471496493 -0.25959453919530334 114.94891392947461
6700000000.0 -0.1322299629171669 115.03862622825615 -57.16131315961896 -161.07031926227057 -57.03499525961897 -159.43529926227058 -0.26044127116321625 114.21908892785096
6750000000.0 -0.1255589232304091 113.99443572577145 -56.56193483793417 -161.5151141767722 -56.47260703793417 -160.55583417677224 -0.2565458442760731 113.5098040230698
6800000000.0 -0.0799725128000851 113.00814022939468 -55.87930155346292 -161.72516812838828 -55.92283605346292 -161.31778812838832 -0.2629011672143196 112.7770050369463
6850000000.0 -0.026117977530781055 112.32721555685966 -55.20688629929288 -162.36659743404562 -55.314632099292886 -161.9719074340456 -0.2624255320179628 112.02486925232469
6900000000.0 -0.011126738064709214 111.73782521259028 -54.73567907799058 -162.56821989309688 -54.64468597799058 -162.66276989309685 -0.25933241767421655 111.26931018778563
6950000000.0 -0.014018712795234001 111.20776965011997 -54.201525677575944 -163.1489260895172 -54.111902777575935 -163.4939960895172 -0.25844971805328054 110.48638567284165
7000000000.0 -0.05436825706784497 110.64319413694224 -53.676790839076396 -163.52515341261358 -53.6614644390764 -163.8170534126136 -0.26422194021611217 109.69877380895433
7050000000.0 -0.10842094771744784 109.66059785789743 -53.09387042800783 -164.35586931057216 -53.06968362800784 -164.34555931057216 -0.27230656039802703 108.90739679685416
7100000000.0 -0.13881794655857463 108.55477607566262 -52.712781414156225 -165.41625470403088 -52.52771921415622 -165.26399470403086 -0.2608074390772023 108.12472495500025
7150000000.0 -0.15101737796433545 107.32306919312916 -52.052790820968085 -166.65993810614853 -52.022361120968085 -165.79535810614848 -0.2674555872527995 107.32032292537889
7200000000.0 -0.11010692018342179 106.11390279258228 -51.54090466230916 -167.14620785801134 -51.55540346230916 -167.03672785801135 -0.2716704413966196 106.43640900975508
7250000000.0 -0.06455676564693436 105.18564434300032 -50.97980249868988 -167.59807913317712 -51.040402198689875 -167.74099913317713 -0.27233638690414275 105.56960461313341
7300000000.0 -0.02860519860106729 104.37291149259138 -50.52067925174521 -168.1757069784498 -50.5573505517452 -168.2105869784498 -0.2758211079583154 104.66337421862768
7350000000.0 -0.017639225086059935 103.74849221092612 -50.06500451833345 -168.73018650548372 -50.04080971833345 -168.8586065054837 -0.2738457880585846 103.79624959533555
7400000000.0 -0.05708985566308737 102.99872005934792 -49.59169091610864 -169.50061947628973 -49.60651581610865 -169.78358947628973 -0.2785000448768757 102.87071687483754
7450000000.0 -0.10206068763840176 102.01456449227948 -49.254192517989 -170.3491823310618 -49.19200811798901 -170.64646233106177 -0.2694024578486892 101.92186376489016
7500000000.0 -0.15427109173616033 100.84751424114249 -48.797927535893905 -171.55885242408243 -48.69854583589391 -171.61330242408246 -0.2709605297666118 100.96545407172651
7550000000.0 -0.1776223321269086 99.36689050402268 -48.33896548546996 -172.8052996918826 -48.251268085469974 -172.71481969188255 -0.27579627073694063 99.96789548711847
7600000000.0 -0.15320373318966599 97.97233612622556 -47.86072121217234 -173.93067561198427 -47.884524412172354 -173.5339056119843 -0.2692947331160555 98.94891896993644
7650000000.0 -0.11639766299478746 96.71737113771128 -47.415323911291345 -174.86230391776272 -47.468274911291346 -174.3869039177627 -0.2745933912203402 97.90515635296103
7700000000.0 -0.06781290249181718 95.64688257572719 -46.99426525287564 -175.47861897678197 -47.05760155287564 -175.4731189767819 -0.27100892274742755 96.83236585974363
7750000000.0 -0.05130006148783842 94.79994822986056 -46.608792992525025 -176.32404565792552 -46.68473639252503 -176.5444456579255 -0.27664644799230836 95.77889957156562
7800000000.0 -0.07330491065417262 93.85020226443058 -46.27210697247537 -177.07400680868346 -46.30121777247537 -177.60220680868352 -0.27419093508815373 94.63768616445778
7850000000.0 -0.12251114916163214 92.81554428307732 -45.98230745184865 -178.10010944504185 -45.92646185184864 -178.5368094450418 -0.2682800355564556 93.4862582482687
7900000000.0 -0.19564327704178028 91.41232040269705 -45.66090580606311 -179.36497160457898 -45.61153540606311 -179.693771604579 -0.27201199633425 92.30509123737838
7950000000.0 -0.226495847004062 89.74775029649965 -45.345167811994855 179.00878839863492 -45.27849651199486 179.06288839863493 -0.27084949187014384 91.06446171576002
8000000000.0 -0.23045725355845503 88.06521341637016 -45.03354374587825 177.61304092200112 -44.96137184587826 178.01254092200108 -0.26604530813890115 89.83728462074275
8050000000.0 -0.19748589669545602 86.41597480443434 -44.698104175593215 176.48086584825572 -44.71946327559321 176.7656658482557 -0.26522463416706393 88.51131887448328
8100000000.0 -0.15020799971445997 85.0097738753135 -44.410733458399754 175.3342295622488 -44.46216715839975 175.56502956224878 -0.2616378542685021 87.2001526896225
8150000000.0 -0.12995739418139776 83.80294860421165 -44.16264225932767 174.31464936791596 -44.22427785932767 174.25334936791592 -0.26275905652961107 85.80279137934612
8200000000.0 -0.1437807472387124 82.56696315986521 -43.984598146789395 173.39498086202494 -44.044002046789394 173.04658086202494 -0.2652958157711637 84.3108116105782
8250000000.0 -0.19485025493383853 81.20304090707545 -43.8573758509787 172.25992005593895 -43.9077395509787 171.92492005593888 -0.2651120897858174 82.85935850047653
8300000000.0 -0.2579616559608595 79.52456930040447 -43.82148560647569 171.0547711371977 -43.8143874064757 170.45387113719764 -0.2632533630715905 81.28676399266718
8350000000.0 -0.3078018652174326 77.61348178550003 -43.81018718201359 169.61980706621503 -43.78458988201359 169.36700706621505 -0.2563543909509586 79.6959101909364
8400000000.0 -0.3282221178093608 75.50526307526437 -43.876213246607406 168.1277655390202 -43.8164292466074 168.10606553902022 -0.2565273656926086 78.01891375289176
8450000000.0 -0.30617618584099904 73.40550921477647 -44.025309964536945 166.80120153627317 -43.96289786453694 166.9679015362732 -0.2581079569250353 76.28522523058818
8500000000.0 -0.27360711135332516 71.4677952948034 -44.19799022736926 165.49273560932392 -44.22288582736926 166.0544356093239 -0.25957844267478597 74.54453248034005
8550000000.0 -0.24962403275981293 69.67708715608859 -44.58284925886423 164.93599965980113 -44.66067755886422 165.21659965980112 -0.26203180781536584 72.60665740427774
8600000000.0 -0.25911680231282425 67.98221651971394 -45.18418361794639 164.69919051982794 -45.25071501794639 164.8914905198279 -0.25455393940327603 70.70327925199703
8650000000.0 -0.3053177698741263 66.08844215954232 -46.14389634583937 165.42790000176828 -46.175769045839374 165.23820000176826 -0.26399756013666026 68.65408646332813
8700000000.0 -0.36884830406488767 63.93148606841148 -47.56783455068887 167.4724377156652 -47.59871275068886 167.03343771566517 -0.26971356157682047 66.55184782427746
8750000000.0 -0.4351102064626079 61.423682816266826 -49.74291395455586 172.86148242177035 -49.73961015455586 172.71238242177037 -0.27005621638993105 64.34154758696229
8800000000.0 -0.46222996552900514 58.658289826228156 -52.97962045694988 -171.74003715649658 -53.001879856949884 -172.00563715649662 -0.27458757439834897 61.960503039089176
8850000000.0 -0.4582509530436279 55.83150616638818 -55.265492444503224 -126.24453380501814 -55.308948744503226 -126.29553380501811 -0.2838261729225927 59.558501737767074
8900000000.0 -0.43364629277321975 53.04966676943078 -50.80950836016852 -82.60934467344998 -50.73532286016852 -82.38616467345 -0.2954197942796532 56.95848789648051
8950000000.0 -0.4183811458529586 50.44001178948369 -45.55321528969722 -68.09623033855037 -45.55116388969722 -67.77390033855039 -0.3047256715239013 54.21041180838259
9000000000.0 -0.43792772843855443 47.69319962933728 -41.393047821328956 -63.7536168627805 -41.43741532132896 -63.50037686278053 -0.32406865355048564 51.40324137773069
9050000000.0 -0.49067029064586754 44.77461363944941 -37.96003314101033 -62.86165275915423 -38.02813884101033 -62.76999275915423 -0.346052198588509 48.35800562141759
9100000000.0 -0.5815048368748298 41.45674000579363 -35.0050713310552 -63.584026242968214 -35.06649693105519 -63.74516624296823 -0.36410913669665895 45.10971103248563
9150000000.0 -0.6599230667495999 37.621919790036344 -32.36166971932726 -65.43574093588997 -32.40980961932726 -65.81501093589 -0.3935247734361188 41.63738864625177
9200000000.0 -0.7036012501190386 33.477738173493165 -29.936586072074398 -68.14936201082048 -29.945188972074398 -68.57223201082049 -0.4281046855787113 37.95446044607991
9250000000.0 -0.7306040817967474 29.06756650089317 -27.651450111021152 -71.58209890916108 -27.62863661102115 -71.93801890916104 -0.4710182675961874 34.01161961756749
9300000000.0 -0.7351973933624045 24.581404907636852 -25.455697163103853 -75.74205935396324 -25.415074663103848 -75.87069935396323 -0.525740687440289 29.684514186035095
9350000000.0 -0.778525664515743 19.951772185554294 -23.311761010476722 -80.37365934973117 -23.273764710476726 -80.29648934973116 -0.5785133476556477 25.126835990689592
9400000000.0 -0.8568214902078024 14.942980672884744 -21.207234931789543 -85.6166102844937 -21.185627231789542 -85.32358028449373 -0.6693193424057369 20.12051298014089
9450000000.0 -1.0056625903467447 9.390630115626902 -19.124283629099445 -91.30011475934803 -19.14162882909945 -90.92347475934804 -0.7621362720286997 14.57061607625988
9500000000.0 -1.1928038579283717 2.885208479059756 -17.09223834379946 -97.40468800667344 -17.139819943799456 -97.15958800667345 -0.8955608807736882 8.578857176670581
9550000000.0 -1.3942307804412573 -4.552661862064052 -15.109971982675482 -104.2625186746448 -15.171607982675486 -104.15881867464479 -1.0706230709177138 1.9400857858112879
9600000000.0 -1.620324598375923 -12.933110005043273 -13.180562848204026 -111.8531469497676 -13.246499148204025 -111.97344694976755 -1.3073965733051436 -5.381833181028177
9650000000.0 -1.8759435071897592 -22.09320220361646 -11.342005803620284 -120.44453749429353 -11.37592080362028 -120.73733749429357 -1.6271950396085875 -13.50623638489934
9700000000.0 -2.2587987266600087 -31.910618598032038 -9.572630946992055 -130.25133344231548 -9.58447354699205 -130.54723344231545 -2.0580580326243467 -22.45658448413707
9750000000.0 -2.8616634251093993 -42.76253009937163 -7.929906390377782 -141.14480891290304 -7.913333390377781 -141.45430891290306 -2.6730412770188643 -32.17024755616578
9800000000.0 -3.74441692627357 -54.724994932682385 -6.435102806007179 -153.21410713320927 -6.395087006007184 -153.36820713320924 -3.500355735971321 -42.714925830917124
9850000000.0 -4.969169863202418 -68.19270119805357 -5.116990051841307 -166.0971816326273 -5.085659951841308 -166.10748163262727 -4.5910142993054786 -53.582452119416025
9900000000.0 -6.48751520185259 -83.07405894125381 -4.03582572455318 -179.3510517977608 -4.007186824553177 -179.3092517977608 -6.020648904949319 -64.32255811370868
9950000000.0 -8.271425080266399 -98.50551308010715 -3.184794905665658 167.28201081776754 -3.1686396056656556 167.47041081776754 -7.75825756394629 -74.53908056975341
10000000000.0 -10.341807166001031 -113.83417277224788 -2.553465998832365 154.4339826801125 -2.5572060988323657 154.5633826801125 -9.785776546781308 -83.22704715343424
10050000000.0 -12.826761294377674 -128.76017144939235 -2.113340480491172 142.1769459981724 -2.1201422804911725 142.3053459981724 -12.031572940964498 -89.97383925441667
10100000000.0 -15.908926467485653 -144.7406651029519 -1.8092250744153615 130.72657766257328 -1.8318605744153627 130.77267766257327 -14.368927935701585 -94.3080133543704
10150000000.0 -19.54493801654444 -166.0887474533445 -1.622061826950758 120.01510005513741 -1.6327036269507522 119.9420000551374 -16.632138310307898 -95.97892351895928
10200000000.0 -22.550111442836112 160.99016399767288 -1.488233274661703 109.90021487117856 -1.4889632746617023 109.83691487117856 -18.564310888435095 -95.41538954816963
10250000000.0 -22.918277560367354 126.78535289078545 -1.3925587162315907 100.5050431914025 -1.3948024162315964 100.44504319140249 -20.056848273597065 -94.124827975716
10300000000.0 -22.144531387788362 106.25801787033122 -1.3266961106408632 91.50796567993667 -1.3188223106408634 91.48870567993669 -21.076626114483208 -94.13787753266153
10350000000.0 -21.866653688634123 94.77528195866014 -1.2616171452665228 82.98650927015805 -1.2557024452665255 82.95560927015805 -21.734907459467294 -96.30385634753412
10400000000.0 -22.257806833450253 85.86728839653523 -1.21415504928707 74.9031972562404 -1.2019892492870685 74.90180725624042 -22.212140522073426 -100.83116285931737
10450000000.0 -23.116157106187064 75.95845027949105 -1.1680428190070722 67.08667617432056 -1.1695431190070735 67.13955617432056 -22.634089414187038 -107.71391588335868
10500000000.0 -23.711991155118927 62.17962640833111 -1.1292897153493666 59.69004002318909 -1.1321418153493692 59.700910023189095 -22.913807504383726 -116.16937036458322
10550000000.0 -23.54769227990385 49.462053952841224 -1.1012597155624353 52.45151305734406 -1.1045222155624408 52.46051305734405 -23.13008822433487 -125.75732905579875
10600000000.0 -23.02612776950337 40.303474768359344 -1.0693160221910134 45.48718099188308 -1.0770072221910072 45.43031099188308 -23.272348573412028 -135.5428178974017
10650000000.0 -22.467466712856652 35.178849824708756 -1.0584201640727509 38.703688538389905 -1.0519559640727532 38.63215853838992 -23.37142333973315 -145.1652626561433
10700000000.0 -22.261751783324677 32.88122249082888 -1.0409570771732044 31.988686207440036 -1.0389083771732013 31.98920620744003 -23.386972615967284 -154.51852166083953
10750000000.0 -22.615478928524276 31.119361886480597 -1.022447842244659 25.504319548261588 -1.0193859422446558 25.44196954826159 -23.421186150755894 -162.6900930476354
10800000000.0 -23.342658334208114 27.159488725895127 -1.0123790076082104 19.097423829326566 -0.9993978076082108 19.120903829326572 -23.44668270832702 -169.57131031101193
10850000000.0 -24.190819253059015 20.056715685324026 -0.9888547440576739 12.823318175611604 -0.9925886440576734 12.863628175611616 -23.544917277431384 -175.48056220103834
10900000000.0 -24.789712462344898 10.357474256822917 -0.9780083709235725 6.695816460898796 -0.9751179709235669 6.715641460898807 -23.651386806988484 179.68438391706587
10950000000.0 -25.158151581286276 0.5277765742750814 -0.9582360481719288 0.6397794433631466 -0.9672885481719223 0.7039061433631604 -23.821108808906892 176.38322243176756
11000000000.0 -25.40707177242458 -8.356343219750709 -0.9454766377225915 -5.225980072957308 -0.9597850377225923 -5.288160072957307 -23.97327295701342 174.52392877342385
11050000000.0 -25.99480310764345 -17.265108695434982 -0.9436369408048597 -11.097270421069117 -0.9448082408048581 -11.138120421069132 -24.144558783501036 173.23060488117108
11100000000.0 -27.002942631513417 -28.02036534415099 -0.934291770661731 -16.86702555251822 -0.9406703706617336 -16.930385552518224 -24.22648797204175 173.9004083907155
11150000000.0 -27.969647178696178 -45.69826144553123 -0.9383901168318942 -22.568746592052456 -0.9300568168318912 -22.674706592052445 -24.22477464725818 175.13660724790762
11200000000.0 -27.753977680239778 -67.56069208631176 -0.9357448934331134 -28.2788157677952 -0.9258812934331134 -28.29772576779521 -24.03159905450352 177.37279960182218
11250000000.0 -26.379721785891338 -84.99490692929733 -0.9328568431935782 -33.891260451596175 -0.9214933431935778 -33.91407045159618 -23.760000874029124 179.4016326235532
11300000000.0 -25.029957353792938 -95.44178432915604 -0.9298856312150645 -39.47934618237341 -0.9201431312150666 -39.42226618237339 -23.340368649263638 -178.37295630171792
11350000000.0 -24.288972715882267 -102.10101531519878 -0.9211542799236251 -44.983050578606104 -0.9217872799236213 -44.920560578606114 -22.80446010447948 -176.78417875388848
11400000000.0 -24.289743078532226 -109.00914485254668 -0.925106563168962 -50.40962700527743 -0.9294814631689596 -50.40682700527742 -22.167323577918424 -175.3403837003221
11450000000.0 -24.5699803409924 -118.90791213449747 -0.9230644723127059 -55.82033922008804 -0.9317779723127071 -55.79815922008804 -21.51372294395123 -175.10041418743214
11500000000.0 -24.64196293478764 -133.35565907080422 -0.9296700829994052 -61.14347437880903 -0.9379014829994105 -61.18679437880904 -20.90532301618422 -175.69448823972155
11550000000.0 -23.85478866000617 -149.02068959782378 -0.9418475345352784 -66.51120922287177 -0.9416817345352774 -66.57087922287175 -20.284722083591312 -176.90220178096635
11600000000.0 -22.446365535240133 -159.88775487293225 -0.9502185073736318 -71.83657899779054 -0.9489871073736279 -71.89275899779055 -19.78221701114115 -178.45168152870355
11650000000.0 -21.200514058763336 -164.7481437235721 -0.9627341028042493 -77.17597714534709 -0.9531987028042516 -77.2324871453471 -19.32797333843583 179.1406756789925
11700000000.0 -20.508391866846672 -166.71858484547417 -0.9637134512551325 -82.50272595804489 -0.9569708512551357 -82.5004659580449 -18.95430419309871 176.62795003651763
11750000000.0 -20.426941929840655 -167.9422101306134 -0.9680729345621697 -87.77391429813663 -0.9620011345621705 -87.76274429813662 -18.657937477191414 173.92848468171374
11800000000.0 -20.899527698595843 -169.79848582111705 -0.9679936926268434 -93.06396912778833 -0.9645084926268438 -93.04328112778832 -18.468782302591276 170.9288597996521
11850000000.0 -21.78828592793274 -174.47624834049333 -0.967677526447734 -98.29466333595535 -0.9690694264477362 -98.30099733595537 -18.37413637936794 167.8596234666097
11900000000.0 -22.723243318712598 176.8142848382738 -0.9748410346576281 -103.5171174656854 -0.9757145346576285 -103.5188524656854 -18.39865153597739 164.66240068503728
11950000000.0 -23.145735317967585 165.83094082003873 -0.9786595347824836 -108.77366472257684 -0.9800085347824804 -108.80391262257683 -18.505925194722618 161.58856454754803
12000000000.0 -23.052790370517307 157.08463764151432 -0.9893672433886341 -114.03513168038295 -0.9857383433886303 -114.04721268038293 -18.770306039788093 158.45577214655762
12050000000.0 -22.97087661293288 152.73897641129847 -0.9976505295008207 -119.38341550645967 -0.9978767295008226 -119.38331350645967 -19.10963983412354 155.41225968997549
12100000000.0 -23.346337819738935 152.80023219966697 -1.0024539932825185 -124.72071332887396 -0.9986302932825191 -124.738579328874 -19.63533968532884 152.70931141074067
12150000000.0 -24.33467341255978 155.59983628203088 -1.011064034479618 -130.1268773835769 -1.0104951344796216 -130.0832573835769 -20.362051721667363 150.0134859823596
12200000000.0 -26.05787035245573 161.35925665796498 -1.0101528168841292 -135.53798159849848 -1.016136116884129 -135.5316315984985 -21.23575841467065 148.17377145611337
12250000000.0 -28.77902735883518 171.25981863975628 -1.0167249535828191 -140.97016279157208 -1.0174374535828177 -141.00659279157207 -22.36801121672314 147.44596449869064
12300000000.0 -31.97581745023941 -169.6728274758789 -1.0248981025592425 -146.45923626220485 -1.0279117025592381 -146.48401626220488 -23.74269742848512 147.81525660898444
12350000000.0 -33.439921069472256 -141.2830085619722 -1.0362468099457298 -151.96556677726673 -1.0358400099457354 -152.05131677726672 -25.499352456562953 151.3026874378504
12400000000.0 -31.534946395134064 -118.01079717319033 -1.0600901646247243 -157.57638599740218 -1.0515912646247259 -157.5945359974022 -27.415308499799387 159.73191710538646
12450000000.0 -28.516739567444432 -110.13498120061627 -1.0767353970706215 -163.2413834995189 -1.074106997070622 -163.25525349951886 -29.108098346309692 176.8225195257607
12500000000.0 -25.666829666452543 -108.97295561388687 -1.1034863952163523 -168.94922808115513 -1.091754095216351 -168.96892808115513 -29.278154846783956 -159.63836459005378
12550000000.0 -23.305578674340317 -109.74974767110406 -1.1271956414418085 -174.79494829927114 -1.1226208414418064 -174.72545829927117 -27.52680452654638 -140.39433706084162
12600000000.0 -21.38302004894227 -110.68341660085932 -1.1497523419085456 179.3654014190329 -1.1558708419085433 179.3890314190329 -25.217001277040815 -130.81730478186236
12650000000.0 -19.902362679883808 -112.35222859092825 -1.1830057803753733 173.44240550461225 -1.1872189803753732 173.4736555046122 -23.20670778877946 -127.04623527197914
12700000000.0 -18.86217355003278 -115.02390996589004 -1.2149580197012673 167.46888882929753 -1.2253350197012693 167.45201882929751 -21.499277796321557 -126.62342119234332
12750000000.0 -18.114776719577957 -119.1434924768276 -1.2599183345866396 161.4180133633146 -1.2614703345866363 161.36154336331458 -20.119481621779457 -128.17738951217197
12800000000.0 -17.442470492266736 -124.18139561623889 -1.3032042537634316 155.2207829504636 -1.3052781537634293 155.18424295046358 -19.0523344657749 -131.18048605009398
12850000000.0 -16.832480428037965 -129.69773217335825 -1.3497063129075426 148.94256374397474 -1.3482004129075391 148.89257374397476 -18.258985585382142 -134.40385823330595
12900000000.0 -16.302015517970077 -134.3348929844134 -1.403046308201833 142.47527525522997 -1.3969521082018357 142.44324525522998 -17.709324078189383 -138.4811081833317
12950000000.0 -15.933804176826296 -137.71462227408117 -1.4447584804471476 135.8238735767013 -1.4375352804471442 135.82163357670132 -17.406651371847513 -142.87314686897074
13000000000.0 -15.933743486388398 -139.9702366743008 -1.4889826002345017 129.03807400967804 -1.4850531002345049 129.06456400967807 -17.40369597532049 -146.97919517017985
13050000000.0 -16.326133602059308 -140.88926628942556 -1.534877229799736 121.99571874070728 -1.5390062297997358 121.99475874070724 -17.755919730924816 -151.2645962392924
13100000000.0 -17.203373459122105 -140.23767559997438 -1.5831488541375982 114.71577039186981 -1.5837087541375994 114.6863503918698 -18.603005344393562 -155.1585448214204
13150000000.0 -18.601777983457044 -137.59428075481796 -1.646174531858689 107.0917076115157 -1.647882631858695 107.0859076115157 -20.114142131552327 -157.1273526257574
13200000000.0 -20.282359347399005 -129.3428884803227 -1.7276817831731432 99.0709703773745 -1.726307283173141 99.01857037737453 -22.706401156058263 -153.8341734791879
13250000000.0 -21.192616701991565 -111.52534198184685 -1.844185383252899 90.57653772972 -1.833404683252906 90.58646772972001 -26.753801488425136 -131.45132825902357
13300000000.0 -19.708943597788895 -90.7212966276747 -2.005064382099155 81.51635334829909 -2.005059482099156 81.53427334829908 -25.666299355799342 -76.07485361665077
13350000000.0 -16.495872541962406 -79.40057390282118 -2.229626724748287 71.93465851152862 -2.2268118247482867 71.93216851152862 -19.61825845251911 -56.03289851515536
13400000000.0 -13.200846618237197 -77.04245496988298 -2.548673793552893 61.86086761977421 -2.5508712935528948 61.934037619774195 -15.047306563115404 -55.564976236011084
13450000000.0 -10.371433137054568 -79.64731095577991 -2.9883789422957037 51.373722721224716 -3.0063655422957014 51.367192721224704 -11.732391780263598 -61.01425027924248
13500000000.0 -8.105186512969972 -84.65192583690597 -3.5825281390448476 40.68979721724941 -3.596823439044847 40.63523721724943 -9.181565351502085 -68.79162408565914
13550000000.0 -6.360291320010921 -91.31230850742477 -4.339961892415863 30.016971032432348 -4.362185692415866 29.90533103243234 -7.204216191447928 -77.6019279483554
13600000000.0 -5.013164956459705 -98.8270737348347 -5.269800951747171 19.622987497018258 -5.280242951747171 19.410177497018232 -5.674563404092915 -86.80103091949789
13650000000.0 -4.001666084640594 -106.74090615942906 -6.352873505449623 9.623875431561007 -6.349843005449626 9.466815431561017 -4.493157825169211 -95.77101721300917
13700000000.0 -3.2184694916028085 -114.75236102332543 -7.553651452849829 0.21304444658050925 -7.545340152849831 0.09568244658052423 -3.591797147267272 -104.41922875447301
13750000000.0 -2.5900044752913223 -122.32919056071788 -8.844418161415092 -8.462422918116342 -8.831483861415094 -8.500454918116336 -2.906933215021847 -112.42495487438121
13800000000.0 -2.096268458860569 -129.25420735902415 -10.205454280190843 -16.434334394958967 -10.194005880190842 -16.378364394958997 -2.3944277149425752 -119.88073609750282
13850000000.0 -1.7111536927444964 -135.48616933781034 -11.593625368189075 -23.70682577363375 -11.59240296818908 -23.54863577363375 -1.9905021267038412 -126.70543240325902
13900000000.0 -1.4361633812053285 -141.01359702170885 -13.003643857684931 -30.22217718949062 -13.023167557684927 -30.006697189490605 -1.6790837601216524 -132.93509879985945
13950000000.0 -1.2400970309451744 -146.21820879867056 -14.439216936777976 -36.03353030838132 -14.473208836777978 -35.93126030838131 -1.443366191979043 -138.62000699313379
14000000000.0 -1.109516930263961 -151.00706743197776 -15.8934701341162 -41.25946836174061 -15.9339113341162 -41.24001836174061 -1.2504385737975094 -143.8754848461392
14050000000.0 -1.0133697468797855 -155.6484079901319 -17.377089565384246 -45.963977742182614 -17.413683365384237 -46.08158774218261 -1.100132314917583 -148.6967839342321
14100000000.0 -0.9104458516328229 -160.01597475966983 -18.886485000490477 -50.320620863332884 -18.903956900490478 -50.50494086333285 -0.9731730696545816 -153.18918386024015
14150000000.0 -0.8158364114922094 -164.02777351051495 -20.405565510223465 -54.31638212517696 -20.41212161022346 -54.54059212517696 -0.8728158507791056 -157.32183232079174
14200000000.0 -0.7220640357605078 -167.6970642727623 -21.95162425509439 -58.09550461840922 -21.93415105509439 -58.27717461840921 -0.7863430694693254 -161.23492996745435
14250000000.0 -0.6442824937190825 -170.93666700646568 -23.501224619064686 -61.62451649808609 -23.477450719064677 -61.63278649808609 -0.7094222093292711 -164.86560626165422
14300000000.0 -0.6048537067684484 -173.9965967775753 -25.06397151399563 -64.76714074951225 -25.06086871399563 -64.68343074951224 -0.6553004538265101 -168.22439495770084
14350000000.0 -0.5812555403404295 -176.87481220663267 -26.66885086263138 -67.55250004171081 -26.67420486263138 -67.38493004171082 -0.6005513949530258 -171.48530188166683
14400000000.0 -0.581810394462557 -179.6939466654722 -28.313691846612134 -69.90464976881067 -28.346535846612127 -69.78102976881067 -0.5511596504765124 -174.54894222850245
14450000000.0 -0.5683890069104937 177.45653889441098 -30.039264619196867 -71.8758367374805 -30.086190619196877 -71.81104673748051 -0.5102558466886804 -177.46401732775598
14500000000.0 -0.5437919404565663 174.72011964562012 -31.869008773178148 -73.35274101501636 -31.921909773178147 -73.39527101501635 -0.4782645447398693 179.8137087154503
14550000000.0 -0.5092692785577998 172.1130052406163 -33.83076022421812 -74.25778714971379 -33.87394522421811 -74.52823714971377 -0.4478541012896608 177.1391289211494
14600000000.0 -0.459069312244737 169.78087932774858 -35.98234684824285 -74.69915413701477 -35.989827848242854 -74.97550413701477 -0.41125672142669556 174.6104763754692
14650000000.0 -0.430786769721346 167.65744390157593 -38.34215491747094 -74.2132857046612 -38.32927691747094 -74.3011357046612 -0.3908596691033932 172.2357372799883
14700000000.0 -0.41425432247113875 165.6069006714988 -40.97134581671754 -72.04883739417261 -40.98247081671754 -72.06591739417262 -0.3692806574159595 169.9016264858481
14750000000.0 -0.4201595301724486 163.66831252636084 -44.02950460360103 -66.80627110110495 -44.01926460360102 -66.66643110110495 -0.3473125827951706 167.65122495470172
14800000000.0 -0.4361559322607492 161.6340473889851 -47.56745066046592 -54.931978365640354 -47.57715266046593 -54.591648365640374 -0.329361111452247 165.5320157569375
14850000000.0 -0.43699170750393534 159.5617576465446 -50.83467661903272 -29.678673977666524 -50.79996961903272 -29.028893977666538 -0.3145790238222952 163.49076947513106
14900000000.0 -0.43368879974722674 157.52221310304589 -51.33535802563823 6.771638490184743 -51.35820102563822 7.073996490184747 -0.30140690178173823 161.45727831832457
14950000000.0 -0.40180094556981183 155.52942260278314 -49.23403457996432 31.250187457607023 -49.25017057996432 31.416157457607017 -0.2836949482801022 159.53491901720167
15000000000.0 -0.37058909938888657 153.79353780647725 -47.03790392237898 43.05834798836057 -47.053364922378975 42.91612798836057 -0.2742133974744356 157.72737952536653
15050000000.0 -0.3474614660904704 152.12456594303782 -45.29350539968551 48.799982414795274 -45.298943399685506 48.54879241479525 -0.2691156181845621 155.91800210532574
15100000000.0 -0.3332601716820772 150.65641945707023 -44.00486438231586 51.43304151458426 -43.963356382315865 51.320381514584284 -0.25204238899465065 154.14053179030387
15150000000.0 -0.34807978738643414 149.12357595768776 -42.988752726050485 52.61938073055672 -42.93933872605049 52.588340730556745 -0.24915646678445966 152.49957303289014
15200000000.0 -0.36574679609775484 147.4914046697014 -42.18704268625977 52.903066598609605 -42.16360268625977 53.04682659860961 -0.24076572477906846 150.87774383504888
15250000000.0 -0.37809283161782675 145.86479784384127 -41.549716083810424 52.584893532617244 -41.51701108381042 52.874273532617266 -0.23664030931000082 149.27303627268213
15300000000.0 -0.3759710322668981 144.14881164496813 -41.01418118220826 52.53389511628493 -41.01661418220827 52.49313511628491 -0.2312448509262036 147.6911577743886
15350000000.0 -0.34871505982047757 142.5567152302017 -40.588038295872266 51.830550800627606 -40.607554295872276 51.87506080062763 -0.22242361723414295 146.22304469647602
15400000000.0 -0.3227843343436037 141.0612037680213 -40.25279897081995 51.289874761580705 -40.296309970819955 51.0842147615807 -0.22104414834271763 144.79077371329103
15450000000.0 -0.29458293098463767 139.75435830928862 -40.02123532982414 50.52182251113046 -40.02157132982414 50.30069251113044 -0.21702601586903747 143.3031695969921
15500000000.0 -0.2888292614194999 138.54681386235728 -39.82575894405188 49.61286972575583 -39.81471294405188 49.44283972575584 -0.21321312846515006 141.97689950772138
15550000000.0 -0.2974069808884038 137.26347976935426 -39.682186934128936 48.711049065132016 -39.65185593412894 48.39064906513202 -0.2186612383654007 140.59183191698904
15600000000.0 -0.31361895593482153 135.9650128635769 -39.57436286143886 47.42042268448241 -39.53517486143885 47.422412684482445 -0.21205262785712292 139.25850435901583
15650000000.0 -0.3315332411644699 134.57299513577715 -39.453145534962715 46.3518515500202 -39.425169534962706 46.376541550020235 -0.21182078064506046 137.96683402553376
15700000000.0 -0.32800877679493823 133.13053583564354 -39.37219371260339 45.279128719409435 -39.36493071260338 45.378648719409405 -0.21501338483184476 136.72515203027535
15750000000.0 -0.31702583039947074 131.72176837306205 -39.300568437246156 44.22117058278032 -39.31199243724616 44.28600058278034 -0.21697450555832926 135.50645616623606
15800000000.0 -0.2842899778130941 130.39218329384218 -39.249914095443536 43.39586976034234 -39.28681209544354 43.26107976034234 -0.22383150951408456 134.25134396167084
15850000000.0 -0.2565575652249376 129.28711600930612 -39.26140088301591 42.52947466360539 -39.27783488301592 42.24262466360539 -0.21350199406533577 133.10913791244099
15900000000.0 -0.24933260825458795 128.18283614146384 -39.26602600630626 41.48773215220226 -39.295266006306264 41.047602152202266 -0.22809783670861267 131.95039515068743
15950000000.0 -0.24833271049601457 127.13385845492239 -39.31744228279549 40.43064766238338 -39.3136852827955 40.07982766238339 -0.22695785423709203 130.74254690113264
16000000000.0 -0.2715401703813414 126.04660567192666 -39.35499105334514 39.232345900512136 -39.332413053345135 39.01958590051215 -0.22400181299072755 129.69926214054368
16050000000.0 -0.29076420775021405 124.79891009374717 -39.40682923936225 38.07255420234332 -39.388735239362255 37.924974202343336 -0.23999196577601667 128.5790098160085
16100000000.0 -0.3003151043716886 123.5238099056063 -39.425870132210314 36.81624731944259 -39.42875013221031 36.98460731944258 -0.23930892004762952 127.48460771413211
16150000000.0 -0.28849216865271265 122.17131465399747 -39.462461287755424 35.824355396275315 -39.47941828775542 35.87938539627532 -0.2441144709757605 126.4050222747904
16200000000.0 -0.2566275979774034 121.00663341309733 -39.49483898612681 34.88789639114781 -39.55052198612681 34.9631963911478 -0.24872584412765517 125.32680706559363
16250000000.0 -0.23157457504530077 119.97180769324018 -39.56109533819755 33.986676807834854 -39.62035333819757 33.948046807834835 -0.25658546466645643 124.28523803880333
16300000000.0 -0.20651806351827473 118.96806234310426 -39.64763537118807 33.240465361431 -39.69555937118807 32.94289536143101 -0.2678839572160432 123.24328604711322
16350000000.0 -0.20932837523899347 118.10050033320603 -39.74260927328402 32.24752485145893 -39.76635127328402 31.91671485145895 -0.26496808330079924 122.21737435168862
16400000000.0 -0.23177198023108214 117.09548967900066 -39.85110874448203 31.191971676163874 -39.86150574448204 30.828241676163866 -0.2737304439064445 121.25778997406447
16450000000.0 -0.24663952382552642 116.03874075391552 -39.94005867887817 30.07956250756991 -39.92792067887818 29.891972507569918 -0.27770532299103756 120.23520607469516
16500000000.0 -0.26154287003376897 114.85110684799555 -40.00115762726816 28.968848932797247 -40.02582462726815 28.916938932797276 -0.2802754562365574 119.27450950382831
16550000000.0 -0.2505633926181517 113.61455481599931 -40.09806755630428 27.937607228231744 -40.11022755630428 28.104507228231746 -0.287751440957975 118.34590148859523
16600000000.0 -0.22880231618736446 112.51873932409612 -40.148599308384796 26.914621553575465 -40.1994813083848 27.064631553575474 -0.29082798364261375 117.35404866393446
16650000000.0 -0.1990972214368757 111.47484195377308 -40.23672629978452 26.13243006917286 -40.29103629978452 26.16674006917286 -0.2982414305321204 116.40506991658073
16700000000.0 -0.1668730432853603 110.60888834087454 -40.33472725918528 25.30048896539535 -40.38753725918528 25.263028965395343 -0.3098540382320836 115.44513699613458
16750000000.0 -0.17344232999502524 109.7596674393819 -40.42839051822992 24.602408529257346 -40.47284951822992 24.15840852925735 -0.30937625991193135 114.55999005773596
16800000000.0 -0.17708334778815502 108.90327172266322 -40.53925596037633 23.731106540959487 -40.56855696037634 23.27515654095951 -0.3196511288541198 113.57335803979066
16850000000.0 -0.20267533850993003 107.94527245416329 -40.66216764777305 22.712999572473247 -40.66927364777305 22.40116957247326 -0.31853357145841155 112.6209999204801
16900000000.0 -0.21878999545956512 106.82672785427117 -40.765374907299105 21.568823053467536 -40.7583119072991 21.55204305346756 -0.32732330093080697 111.7398460468891
16950000000.0 -0.21743869621614165 105.73609317248278 -40.85916584131083 20.530477992733204 -40.86586884131083 20.533047992733206 -0.3343279259226825 110.7757651525171
17000000000.0 -0.20138801909749818 104.576101067185 -40.92617035259394 19.541703582770108 -40.95253035259394 19.816153582770095 -0.3387435067338893 109.87408293024832
17050000000.0 -0.16595617409887645 103.55501621808595 -40.9875000899541 18.78738231987108 -41.0510150899541 19.010792319871083 -0.34352683021393915 108.99509725346718
17100000000.0 -0.14038450914328499 102.72069399684005 -41.07493052975531 17.939794794099992 -41.151890529755306 17.996714794099997 -0.3526491553264359 108.04723579447116
17150000000.0 -0.12648183265777652 101.88781803984745 -41.167336332699634 17.301118047817745 -41.247993332699636 17.097228047817755 -0.35351780882325345 107.17064469197021
17200000000.0 -0.13538507346034906 101.16463632509306 -41.27739694829485 16.482387909510578 -41.32243094829485 16.27604790951059 -0.3589333003851907 106.23474579838539
17250000000.0 -0.159667719056461 100.25636457991737 -41.41192229773878 15.608582880372069 -41.40394529773878 15.403872880372063 -0.3615902005619802 105.36596183884033
17300000000.0 -0.175637766480332 99.28578952426602 -41.5364019348286 14.63248854075235 -41.510343934828605 14.608368540752336 -0.36627478650234113 104.44713375369466
17350000000.0 -0.187207402248198 98.19548275107304 -41.60311803353786 13.592116737134155 -41.60857103353786 13.746546737134155 -0.37073029961241843 103.5027690386609
17400000000.0 -0.1675000294930068 97.06820985834976 -41.66141723378655 12.700792681607457 -41.70179423378656 12.81310268160746 -0.36758459042029984 102.64047102053483
17450000000.0 -0.1345597689986214 96.12214018554803 -41.74180456641055 11.774690312599795 -41.78815956641056 12.03665031259979 -0.3748063088344302 101.76466776216564
17500000000.0 -0.11448847914869915 95.22573293701512 -41.80321509494763 11.039531125233273 -41.85351809494763 11.351761125233285 -0.3677304181510809 100.87367164289063
17550000000.0 -0.08202190823122554 94.49435053391198 -41.882152324160245 10.251694937749452 -41.93341432416025 10.477874937749455 -0.36871543243284 99.98028990562338
17600000000.0 -0.09475027750492149 93.78015811942679 -41.96336682564683 9.660556097769481 -42.03695082564683 9.55457609776949 -0.3724773941301476 99.08976395192562
17650000000.0 -0.103752251041705 92.95641554492191 -42.08470662357247 9.009035715354988 -42.09961862357247 8.628606715354982 -0.37156196189199187 98.19897367056602
17700000000.0 -0.1250733566611006 92.12309780051991 -42.17864368801861 8.071849924528582 -42.1748806880186 7.995016924528586 -0.3689144902235285 97.32192635950551
17750000000.0 -0.1463980336819573 91.01637267537244 -42.23938121158726 7.227232669048538 -42.228065211587264 7.155715669048538 -0.3661339537709536 96.49493520086158
17800000000.0 -0.13677770967670888 89.98776704534544 -42.32046705992647 6.054779970549562 -42.31717605992648 6.324560970549563 -0.3655484019920236 95.63196227118769
17850000000.0 -0.12738728822083223 89.01881322380453 -42.38086724136139 5.126640115954764 -42.3627722413614 5.399010115954762 -0.3654325081250379 94.72779315676073
17900000000.0 -0.08366209482870604 88.03908803691232 -42.4257248330952 4.232663255102951 -42.47331883309521 4.697818255102953 -0.35808035963700624 93.86599774271829
17950000000.0 -0.06364717853375872 87.3058477303069 -42.473950247463364 3.3127509409531997 -42.541836247463365 3.6358648409532 -0.35774211467591666 93.05031852723877
18000000000.0 -0.06402327808869154 86.54731147190473 -42.52697782740544 2.790897471839332 -42.597246827405456 2.924214471839331 -0.3558617281856677 92.14316184707087
18050000000.0 -0.06434227127499431 85.86185244951037 -42.62042637237712 2.1174012461972014 -42.66922837237711 2.0122792461972017 -0.34765940870153633 91.31409547881267
18100000000.0 -0.1032365362067903 85.03727429867858 -42.67866589665964 1.308339779381984 -42.69759889665964 1.0663737793819832 -0.3424411987707253 90.47060670372976
18150000000.0 -0.12475738435650101 84.01399253934088 -42.77482391438416 0.40479937353788087 -42.77094591438417 0.25275737353788097 -0.340536710274041 89.59951199237098
18200000000.0 -0.1399589271692033 83.03471960738258 -42.85807262194341 -0.9262244238387557 -42.83713762194341 -0.6308954238387557 -0.33076682974324895 88.69168412245848
18250000000.0 -0.1250930047281646 81.9378868769262 -42.88178732487996 -1.8557945975203387 -42.90198232487996 -1.5627845975203445 -0.32591324799585797 87.78979509807802
18300000000.0 -0.09225038970179888 80.98919920991075 -42.948012874486565 -2.6775348366769207 -42.944975874486566 -2.3490385366769133 -0.31923316452580763 87.01008823073116
18350000000.0 -0.08076312320328205 80.23273513985144 -42.97674397041427 -3.8597357098568144 -43.00507697041425 -3.2319380098568162 -0.31159688805902847 86.11741725706388
18400000000.0 -0.060717048915200876 79.45938938845359 -43.02580343373552 -4.5887418171419 -43.06067843373553 -4.346929717141909 -0.29737187687308947 85.23828870581485
18450000000.0 -0.06537145587000844 78.84704441971077 -43.07024596448565 -5.18859542125004 -43.08105596448564 -4.979806421250036 -0.29094106064146885 84.3931857922312
18500000000.0 -0.0967718237410729 78.00755108725845 -43.15191376991229 -6.133847748806053 -43.20074876991229 -6.088261748806059 -0.28453566870345254 83.54939088306718
18550000000.0 -0.11765147667585371 77.17933863428216 -43.26861009675389 -6.926950382714875 -43.244060096753884 -7.035032382714869 -0.27646283186798115 82.6739559387052
18600000000.0 -0.14145804476929608 76.14461324960723 -43.359783827351876 -7.962787854520197 -43.26296482735188 -7.917766854520208 -0.26580797205893536 81.8231274169023
18650000000.0 -0.13116512654153634 75.06294898254328 -43.40856407809763 -9.20154074960846 -43.32486807809764 -8.815933749608448 -0.26115286693801687 81.01516299070354
18700000000.0 -0.12233057308224146 74.13199311074763 -43.43040372388771 -10.065149929816322 -43.3893507238877 -9.69848292981632 -0.2512178504501713 80.1920161815539
18750000000.0 -0.10196123802085097 73.25896863601164 -43.492434368278424 -11.045260695000785 -43.452634368278424 -10.800131695000793 -0.23625818709110613 79.30955848713427
18800000000.0 -0.07369599286650054 72.56866953922385 -43.505491593572444 -11.989339671293608 -43.496939593572435 -11.829406671293613 -0.22516305780246487 78.47692031810222
18850000000.0 -0.08387453577474029 71.84733282093059 -43.57420890809979 -12.924898416655996 -43.56033690809979 -12.622227416656001 -0.21624306366072363 77.66401805432689
18900000000.0 -0.09922690611575706 71.11517951152469 -43.66036948999762 -13.568186871528006 -43.62240248999761 -13.701967871528009 -0.20566026064113352 76.83046990652117
18950000000.0 -0.1303497377206868 70.35060548850693 -43.72396810639681 -14.407251594079568 -43.65268010639681 -14.697146594079584 -0.19218669101835104 76.0067709431048
19000000000.0 -0.15784083055349893 69.37753522235396 -43.80813806854278 -15.17996934211954 -43.729010068542784 -15.536279342119546 -0.18673099111415692 75.22154220744525
19050000000.0 -0.16251746708045686 68.34333809002952 -43.87259441454936 -16.28212299691901 -43.807325414549354 -16.297022996919008 -0.1778528296045751 74.43897950814544
19100000000.0 -0.1548178636460944 67.3588519188993 -43.913017871654006 -17.56602873186832 -43.856785871654004 -17.34516873186833 -0.16347625280334588 73.62733802424756
19150000000.0 -0.126372514507844 66.45765735383479 -43.957310480994465 -18.17763146084103 -43.92401148099446 -18.257891460841055 -0.15788331335044928 72.8117079319943
19200000000.0 -0.1066868523073142 65.72302839827782 -43.99762132921672 -19.40662495977951 -43.95395232921671 -19.142214959779498 -0.14148470157840473 72.05607053256593
19250000000.0 -0.09473706345288038 65.02112248316467 -44.042240832299704 -20.2291066938852 -44.03060183229971 -20.088356693885213 -0.1329505866240764 71.28790805893208
19300000000.0 -0.10232740135494924 64.41468067689124 -44.07688142187115 -20.76848770337426 -44.063267421871146 -20.991137703374267 -0.11585922542883424 70.54419056299086
19350000000.0 -0.14007455783579645 63.72797148959769 -44.14194615256659 -21.498786684165164 -44.11098615256659 -21.70442668416517 -0.10775695418052429 69.76423542842345
19400000000.0 -0.1632262312400146 62.7945931332433 -44.24709962631721 -22.192030054805905 -44.16712662631721 -22.368280054805904 -0.093374181284025 69.03910619158854
19450000000.0 -0.1849239809065787 61.855670821406484 -44.287724886831306 -23.153378764492878 -44.245683886831316 -23.58618876449288 -0.09002449620525971 68.24663710395988
19500000000.0 -0.1734972088377655 60.77624202226307 -44.367725080960994 -24.22820880434631 -44.244806080961006 -24.341738804346306 -0.07464513262897278 67.52611951190488
19550000000.0 -0.15099775675033544 59.94362868908022 -44.39388659416036 -25.172618389731024 -44.29085959416036 -25.286908389731032 -0.06563775350950171 66.7777520421475
19600000000.0 -0.11904721575752451 59.078462996913736 -44.41089396764474 -26.002123951135975 -44.33396296764474 -26.099143951135982 -0.0600492043978908 66.07516691970062
19650000000.0 -0.09726571012107771 58.48236619445899 -44.38801945479451 -26.92312637127466 -44.40251245479452 -26.765026371274644 -0.04892361789720524 65.36987648460683
19700000000.0 -0.11024368417476607 57.880214615009706 -44.46414270887823 -27.606351643908795 -44.44579670887825 -27.530591643908775 -0.045567096421849196 64.57220754564331
19750000000.0 -0.12969015166982417 57.20136045295994 -44.47998485262326 -28.048647882785946 -44.464601852623275 -28.49492788278593 -0.028098214579251986 63.867198024101285
19800000000.0 -0.16887341095494504 56.447578534545706 -44.53584311166631 -28.837251619612566 -44.53107311166633 -29.197301619612585 -0.02435067088866155 63.174705273120836
19850000000.0 -0.19788561741033328 55.48328855510913 -44.61991870177671 -29.48532871962352 -44.533973701776716 -30.059898719623533 -0.01592254966349041 62.481479872539026
19900000000.0 -0.20250037288450945 54.518004921647794 -44.65719761512159 -30.371523584429376 -44.58923061512159 -30.785233584429346 -0.010926952670596143 61.74135149624449
19950000000.0 -0.1905267705972205 53.49140837068442 -44.73961990939731 -31.66816627890248 -44.6334909093973 -31.640816278902477 -0.010190716765309015 61.093797932470345
20000000000.0 -0.1584457566680593 52.67286687950232 -44.748301263966766 -32.51597969391694 -44.65506526396677 -32.590139693916946 -0.002605518976310353 60.34499323818432
20050000000.0 -0.1337211025169108 52.02897724670778 -44.754629853486286 -33.319441565511646 -44.71830285348629 -33.34023156551164 -0.001640525923355718 59.63893654212076
20100000000.0 -0.1265301062853365 51.46370769659439 -44.731693300613465 -33.99265058121134 -44.73387230061347 -34.136150581211325 0.0053949159601005955 58.91975155256694
20150000000.0 -0.14083143271591414 50.91838096834652 -44.769815929103764 -34.55874690840672 -44.76339792910376 -35.11280690840676 0.0062343203402750015 58.2496090859848
20200000000.0 -0.18545351153292933 50.21235699622811 -44.75992129832897 -35.211678683753064 -44.772784298328986 -35.85752868375308 0.009048432777406369 57.54853553589521
20250000000.0 -0.21520961376802802 49.348805373552665 -44.8206450667208 -35.77853822273649 -44.81367206672079 -36.41923822273652 0.011903833658052004 56.82329268026547
20300000000.0 -0.2385412584094076 48.38051004415568 -44.88249528261436 -36.7164298356866 -44.834180282614355 -37.3542598356866 0.014853428675213078 56.195858386825975
20350000000.0 -0.22899586142788306 47.352543234357235 -44.93380916501238 -37.60328108283505 -44.881177165012375 -38.18167108283507 0.010915366051416363 55.49663641045943
20400000000.0 -0.198305388237094 46.506670434806985 -44.97730317843153 -38.55040836448238 -44.89287817843153 -38.83222836448236 0.01147854387696504 54.80552456332889
20450000000.0 -0.17280128822420746 45.73674092237471 -44.94826122904642 -39.60028091369888 -44.94173522904643 -39.716510913698876 0.010416538827887106 54.11011970298064
20500000000.0 -0.13608544460766975 45.111614337359065 -44.964460707227474 -40.40534005221169 -44.974197707227475 -40.4414400522117 -0.0021007761620609137 53.472412379502515
20550000000.0 -0.15455773822035782 44.687276288463956 -44.943848619744884 -41.060884847635904 -44.977533619744875 -41.2887648476359 -0.003716946804088444 52.76013785782764
20600000000.0 -0.17290491706252575 44.01366253258012 -44.96152990093934 -41.589368131083724 -44.98986990093934 -42.24148813108372 -0.0109151444932404 52.05019335690467
20650000000.0 -0.21370457069778426 43.32035688046946 -44.96651407536679 -42.404906392167554 -45.04013107536679 -42.884896392167576 -0.012321868224882914 51.410552900448955
20700000000.0 -0.24774609897123004 42.30268964127136 -45.03158840842616 -42.871433351367756 -45.06554740842616 -43.52502335136776 -0.02402279421508037 50.724445491754864
20750000000.0 -0.2432487408476339 41.311593067363255 -45.0826102227208 -43.75209421718896 -45.072470222720796 -44.653954217188975 -0.03189231601226493 49.99549178405418
20800000000.0 -0.23205338904045553 40.395487239849665 -45.11022862472042 -44.67371063802022 -45.12324062472041 -45.239900638020224 -0.03129034650149045 49.28816948166175
20850000000.0 -0.18200714756138286 39.46208925661144 -45.1516945238085 -45.604827889515974 -45.136676523808504 -45.97240788951598 -0.056807539894910705 48.67979285526942
20900000000.0 -0.15451600670693227 38.95474479895117 -45.14531258459841 -46.515062754283136 -45.1825995845984 -46.59812275428312 -0.06146224655452095 47.953132816239076
20950000000.0 -0.1570580157051012 38.35377321962439 -45.14729822236567 -47.450899930531534 -45.17338922236567 -47.5433099305315 -0.0726404445616415 47.256217569737224
21000000000.0 -0.16233128091870982 37.79443195603247 -45.14086772319824 -48.06334615478429 -45.20883572319824 -48.367186154784285 -0.07778046424680882 46.597535252567106
21050000000.0 -0.20098370351993924 37.132354123736306 -45.113907867294245 -48.678771318941806 -45.21885786729425 -48.8648913189418 -0.09763265556647255 45.89327615652151
21100000000.0 -0.24178728127011048 36.23957681821237 -45.13924561480172 -49.22969249195631 -45.25157661480173 -49.862042491956316 -0.1016422198779504 45.11300704287982
21150000000.0 -0.24955043960385168 35.30274955840355 -45.20521690212622 -49.65180986731114 -45.26021290212622 -50.28480986731113 -0.11365916747887019 44.49114644666968
21200000000.0 -0.2504344856353768 34.243365817086726 -45.24816377029791 -50.64714793631178 -45.28511577029791 -51.07421793631181 -0.12668065971617926 43.831553125637896
21250000000.0 -0.2014184469073414 33.39448193369254 -45.25259941386374 -51.48482845539625 -45.28985141386373 -51.80646845539626 -0.1448002201988764 43.07644538598607
21300000000.0 -0.18391255950848623 32.727493649057706 -45.30073662323964 -52.5547427535938 -45.33109162323964 -52.473382753593775 -0.1457324872248684 42.37266964010153
21350000000.0 -0.14422625189291924 32.03351938497232 -45.312890682515594 -53.341822983130115 -45.3500126825156 -53.3181429831301 -0.16623535412245785 41.68647495303431
21400000000.0 -0.14367773304097764 31.61410924222378 -45.255543984012576 -54.19697394073484 -45.33570398401256 -53.954233940734866 -0.1859048330710758 40.97095151172741
21450000000.0 -0.19423319592865862 30.973791532284118 -45.22513308116825 -54.67855292915459 -45.380781081168266 -54.494372929154615 -0.19832134449281674 40.21148538752662
21500000000.0 -0.21315917088870828 30.162837833830313 -45.243211489992106 -55.43688084888147 -45.360350489992115 -55.405500848881466 -0.21037810014755606 39.50565592784947
21550000000.0 -0.24541982478425817 29.240571312451458 -45.27425471958179 -55.83064108518542 -45.35482671958179 -56.05511108518541 -0.23149425114934394 38.81354309955698
21600000000.0 -0.23581749912865302 28.145790473170972 -45.294468697188094 -56.651580636199526 -45.405400697188085 -56.520350636199545 -0.24196554197480843 38.02612204733378
21650000000.0 -0.2115254105744948 27.285650293770708 -45.34497589296152 -57.24259410920884 -45.39575189296152 -57.10456410920881 -0.24743842839635347 37.29550677131353
21700000000.0 -0.17296396354680343 26.40754588796349 -45.35439481267572 -58.15091942016896 -45.39274681267571 -58.08431942016899 -0.2700404906162692 36.572305939331066
21750000000.0 -0.12807069329773133 25.81791050244889 -45.367670227362936 -58.90364005423486 -45.40697322736293 -58.679220054234854 -0.29137601338894115 35.811502328260396
21800000000.0 -0.1407712679781297 25.341172338950965 -45.34260477102424 -59.64557285657086 -45.377483771024245 -59.184922856570836 -0.30324004832577905 35.078116999202095
21850000000.0 -0.15324876039796767 24.62378742504456 -45.28312482499516 -60.57608411529618 -45.40714082499515 -59.87546411529617 -0.3182569446232986 34.36365278086957
21900000000.0 -0.17722503802119374 23.99832429717825 -45.351623709044645 -60.902954308511035 -45.40604170904464 -60.50905430851105 -0.3358784655960518 33.5834969784294
21950000000.0 -0.2231103324359459 23.060124678427503 -45.277916033468166 -61.194479373718494 -45.38701703346817 -60.91944937371852 -0.3533005324848977 32.76118098327907
22000000000.0 -0.22075360169382646 21.951233409575284 -45.28670156765526 -61.77588151484205 -45.371249567655255 -61.56554151484204 -0.3601508803063408 31.973450206155004
22050000000.0 -0.2002054148884283 20.96484646501985 -45.29893786426321 -62.65466434137404 -45.371510864263215 -62.34734434137402 -0.3847131933026594 31.257844302448373
22100000000.0 -0.16609337459426493 20.03243092854423 -45.36285514125642 -63.29269624266704 -45.35415514125641 -63.09829624266702 -0.40036681200009816 30.438353120701862
22150000000.0 -0.12957288419863888 19.440973704473233 -45.35362707468167 -64.03547512469945 -45.311264074681674 -63.563395124699454 -0.4064962323488019 29.649620599179148
22200000000.0 -0.12082147600891492 18.757036974525256 -45.32243997316621 -64.73846921724841 -45.34757097316621 -64.1420892172484 -0.4214291849779803 28.95640524614707
22250000000.0 -0.11358420723192494 18.18781852366998 -45.2593321768405 -65.69488458863827 -45.29268017684052 -64.8875445886383 -0.4437931673356002 28.129326849014653
22300000000.0 -0.1622218001882762 17.540733184402235 -45.23408035801253 -66.26590306453129 -45.251563358012525 -65.35461306453128 -0.44956786269221205 27.322525679579023
22350000000.0 -0.19494005539663484 16.564179529528495 -45.16833490990156 -66.84638141525903 -45.23701490990157 -66.24743141525904 -0.4637984239146573 26.542203610199092
22400000000.0 -0.2010172747495351 15.584427647972836 -45.1504673193688 -67.31800503029586 -45.1692843193688 -66.96842503029583 -0.48351748667492855 25.74234661988926
22450000000.0 -0.19602015622833657 14.523953054171399 -45.14762182244488 -67.8128298788905 -45.143250822444884 -67.83651987889048 -0.500501902984575 24.929607594762714
22500000000.0 -0.16129985562212806 13.494858660238364 -45.176433498165125 -68.6186395345687 -45.146085498165135 -68.42467953456871 -0.5042307067798214 24.11950818871553
22550000000.0 -0.11898535344558063 12.734209851611716 -45.16507209612142 -69.63040786522812 -45.06461309612141 -69.54204786522813 -0.5096713095596662 23.35252811306477
22600000000.0 -0.08464550798136726 12.12776326867095 -45.16466409622474 -70.58844140876104 -45.07486909622473 -70.31760140876104 -0.5302539237684978 22.467599638202184
22650000000.0 -0.09226097417156999 11.532279571986908 -45.11518493228444 -71.65481392554574 -45.01112693228444 -70.84586392554571 -0.5308944771909784 21.628608002903263
22700000000.0 -0.12324074388190176 10.851705753690446 -45.05132801629911 -72.49536599891162 -45.0113170162991 -71.79557599891164 -0.5382068849164372 20.890173334770374
22750000000.0 -0.1440799008290342 10.06401020024404 -45.01361481299989 -73.25995171165523 -44.996508812999906 -72.50512171165525 -0.5633489592341303 20.063033988963824
22800000000.0 -0.18028858937152675 9.09801645685603 -44.970241361873455 -73.97619590195949 -44.97198436187345 -73.6746959019595 -0.5644369459901237 19.195765797517666
22850000000.0 -0.1852476018341881 7.9074979005150166 -44.96855946440479 -74.79335785779422 -44.9640444644048 -74.54207785779423 -0.5693130803907088 18.433982457570465
22900000000.0 -0.1487726015212863 6.923237083488116 -44.989661796655184 -75.40141202214811 -44.92704879665518 -75.44735202214811 -0.5784441199156082 17.503181578729357
22950000000.0 -0.10675547268795535 6.018394046895205 -45.01767135583718 -76.13581808805152 -44.921053355837174 -76.41559808805154 -0.5885528138169492 16.71651034072139
23000000000.0 -0.0673606565355893 5.342689383185455 -45.04155748757343 -77.27013431693037 -44.902393487573434 -77.21128431693036 -0.5955707161764616 15.832708076545337
23050000000.0 -0.050236190955615406 4.720012377576353 -45.0105135609397 -78.33678472462799 -44.879451560939685 -78.02262472462797 -0.5921824121152794 15.073883709074014
23100000000.0 -0.05943104926598927 4.186211745983416 -45.00587699277816 -79.53159134502447 -44.896140992778165 -78.93402134502446 -0.604495883367529 14.287016821294165
23150000000.0 -0.1004604435577587 3.4782585742670484 -44.94712409823585 -80.3214452220273 -44.875656098235844 -79.86564522202728 -0.609994943522036 13.391834100877322
23200000000.0 -0.13434135892820903 2.526265432272995 -44.921732923437936 -81.16815585970191 -44.875358923437936 -80.73525585970192 -0.6053182937782013 12.612007923660778
23250000000.0 -0.14959393728062048 1.5078477313949612 -44.91664799678193 -81.66165634305095 -44.89290699678193 -81.57307634305099 -0.6161601416386264 11.785142210188694
23300000000.0 -0.13824635687880918 0.40534053862937575 -44.93797041831164 -82.42423789796615 -44.85034641831164 -82.57742789796615 -0.6191668116462155 10.910725702038901
23350000000.0 -0.09615885181752948 -0.5323356591504151 -44.97892028364103 -82.91090635631501 -44.87408128364105 -83.35613635631502 -0.6237574994475146 10.09578302054541
23400000000.0 -0.05680228777173722 -1.3921895646304114 -45.01144419317924 -83.76236980323424 -44.87045319317922 -84.35015980323423 -0.6242422145451141 9.285711084139518
23450000000.0 -0.021193875941618992 -1.9333790669451782 -45.04931233199826 -84.79019878633933 -44.87422833199826 -85.04662878633935 -0.6166889017858395 8.51035428512114
23500000000.0 -0.02741915407563437 -2.397925251552044 -45.02501034039733 -85.9705310143649 -44.90116134039732 -85.89968101436492 -0.6206097639941809 7.646061986413894
23550000000.0 -0.04529222217637917 -3.085772571889732 -45.013493227033486 -86.92916781593816 -44.89448022703347 -86.85511781593814 -0.6118562189507764 6.834914147687666
23600000000.0 -0.07620027193501969 -3.8078754545807825 -44.966440350498345 -87.8494788958512 -44.90330635049834 -87.68929889585121 -0.6100313128274194 6.094089569713317
23650000000.0 -0.11604926304284129 -4.711815550300626 -44.96262901144175 -88.48397460315661 -44.94014501144175 -88.2916846031566 -0.6177720080394531 5.24175111147922
23700000000.0 -0.1102893982343539 -5.803102484220442 -44.94792062742363 -88.9304220656143 -44.92839362742363 -89.35945206561428 -0.6070239758471649 4.4915715795932165
23750000000.0 -0.09198760668584265 -6.758041953581161 -44.98269557043002 -89.56199368893725 -44.93370057043002 -89.85210368893725 -0.6072090165656123 3.7495345827564788
23800000000.0 -0.05403969032283902 -7.611727314770001 -45.02198832015851 -89.95621768398388 -44.94849332015852 -90.8106086839839 -0.6003708711272516 2.86349518171917
23850000000.0 -0.005440466121049231 -8.194334735951514 -45.035636752456114 -91.04875425591307 -44.950732752456105 -91.69952425591305 -0.5998426292852226 2.1280457155236205
23900000000.0 -0.0009121203221975085 -8.779655990741318 -45.07777646392306 -92.02997478179796 -44.964234463923056 -92.36515278179797 -0.5930532671964286 1.2934656623350873
23950000000.0 0.005475566895244777 -9.331773117180703 -45.091419563558325 -93.03124463951752 -44.94831056355832 -93.25844233951752 -0.582996383266321 0.5246965338906713
24000000000.0 -0.0329685958165298 -9.782798053888634 -45.0477260221018 -93.93536553405029 -44.9676760221018 -93.7506375340503 -0.5857541594081865 -0.2639299067308427
24050000000.0 -0.06823166022273174 -10.6831638927464 -45.020813798569144 -94.75908124899694 -45.00124879856914 -94.75871524899694 -0.5746870926503215 -1.054993217404557
24100000000.0 -0.08159710479160515 -11.585648642931005 -44.99155359622308 -95.23961336796357 -44.98774959622308 -95.27911536796357 -0.5628063974732637 -1.755558173529376
24150000000.0 -0.09086552938112698 -12.562763860930295 -44.997948181517714 -95.6179329007629 -44.98935918151772 -95.83396290076288 -0.5607489756334129 -2.5122937518907174
24200000000.0 -0.04570424441669955 -13.449029363711833 -45.023219760644906 -96.21597578121263 -45.00450276064491 -96.83012578121264 -0.5447996738837387 -3.2991135851155846
24250000000.0 -0.017834860622341554 -14.092069474613355 -45.072116569416565 -96.91669197354707 -45.01680056941658 -97.46920197354707 -0.5397134996610676 -3.9899480260350693
24300000000.0 0.009708674330468436 -14.749103361666204 -45.11446630328318 -97.72295212993981 -45.04145930328319 -98.42757212993983 -0.5352554379728556 -4.711899726370351
24350000000.0 0.025135878909228936 -15.039867211645538 -45.13552315669716 -98.47221401186053 -45.05813615669716 -99.06559401186053 -0.5238001026385167 -5.416737283298687
24400000000.0 -0.01491851881244347 -15.518616047799885 -45.13020709929733 -99.52862907440942 -45.06788409929733 -99.74498907440943 -0.5136901619134908 -6.1550538037011435
24450000000.0 -0.030043270785610202 -16.205752238025863 -45.111090954412745 -100.38321148726078 -45.05157395441274 -100.34504148726079 -0.49847316719629503 -6.817912151823383
24500000000.0 -0.06927677378980936 -16.857062540007092 -45.07921896219344 -100.97999435864558 -45.04924496219344 -100.94922435864557 -0.48974977376332884 -7.494088905956586
24550000000.0 -0.08897508946658234 -17.81639509091092 -45.03224451935591 -101.4775260633906 -45.04254451935593 -101.78865606339059 -0.47363325087063657 -8.246646971201722
24600000000.0 -0.05828378399736199 -18.625885094914185 -45.02259040401711 -101.89999521905148 -45.07637140401712 -102.32222521905149 -0.4651085035086249 -8.864438534639065
24650000000.0 -0.03649771509239382 -19.368359237370203 -45.06960327219046 -102.37506503055928 -45.07207927219045 -102.90190503055928 -0.4663511992426831 -9.511133796142095
24700000000.0 0.013017141431229376 -19.93419495815427 -45.09484435451911 -102.81025630628457 -45.078939354519115 -103.60612630628458 -0.45296556182843256 -10.232594692607776
24750000000.0 0.024399673133748453 -20.250351743124718 -45.154891046158866 -103.60469944818166 -45.09477704615887 -104.27857944818166 -0.43756279387679553 -10.859809486888905
24800000000.0 0.022915394374750965 -20.76105278700461 -45.178232845397794 -104.4792970728934 -45.080297845397794 -104.91725707289338 -0.4321081650631816 -11.551779731139508
24850000000.0 0.003840184644202473 -21.091411155295297 -45.17919840012125 -105.42718988322493 -45.07897140012123 -105.71911988322492 -0.4162906824819323 -12.201972674570552
24900000000.0 -0.05451149708756782 -21.66746863534389 -45.14645167752206 -106.011320525724 -45.097374677522055 -106.45399052572401 -0.406600746740973 -12.874593125830652
24950000000.0 -0.06669620505639262 -22.533030311417512 -45.13062624223358 -106.73210337377637 -45.087856242233585 -107.05404337377635 -0.3946070960922832 -13.44463623019279
25000000000.0 -0.07019353816845193 -23.215914028310568 -45.07408925394642 -107.22511558194157 -45.06810125394643 -107.61225558194157 -0.3891429073397865 -14.043408999478077
25050000000.0 -0.060442325680852844 -24.086782045882558 -45.0701430488396 -107.46817492224008 -45.10662804883958 -108.28085492224008 -0.3710669587830054 -14.70085777470894
25100000000.0 -0.005446970079909384 -24.672111606107595 -45.093922297858825 -107.7946659239709 -45.09360229785884 -108.8740159239709 -0.35621664037486783 -15.248390111268176
25150000000.0 0.016385796759513793 -25.107137994738462 -45.148556630447665 -108.2474881321617 -45.13009963044767 -109.4700381321617 -0.35971255933548363 -15.825543074462791
25200000000.0 0.03491636053974587 -25.477096204274563 -45.17928701152965 -108.89953170918314 -45.10884301152966 -110.16929170918316 -0.3479474905654746 -16.45954830073426
25250000000.0 0.01750645205661737 -25.6544318391515 -45.18242830210454 -109.86452112987871 -45.10788930210453 -110.59996112987872 -0.33762338633362754 -17.03611654141075
25300000000.0 -0.020286967324340467 -26.20868557549418 -45.173027271355906 -110.6632788931261 -45.1340852713559 -111.27991889312614 -0.3296515094509447 -17.60447687391986
25350000000.0 -0.03303615607918273 -26.76393631884297 -45.15469157362922 -111.41190575249804 -45.12567357362923 -111.83885575249808 -0.3195242633091443 -18.16289439225409
25400000000.0 -0.07780013009008006 -27.413108361640838 -45.09958562569465 -111.88610429450264 -45.13372262569465 -112.30487429450265 -0.30966155777296744 -18.764876770011803
25450000000.0 -0.07279312490466545 -28.28918269423048 -45.06872356071373 -112.1847204790517 -45.12038756071374 -113.02043047905174 -0.28586074375245857 -19.324845554996404
25500000000.0 -0.032391811202217055 -28.868752903183378 -45.08953815795597 -112.70099517112723 -45.13924115795598 -113.61106517112722 -0.2943465076922701 -19.844793423374224
25550000000.0 -0.01361645830308196 -29.437136455708035 -45.09768775747755 -113.02443041194716 -45.125423757477556 -114.08644041194717 -0.2884388659051609 -20.39751303420634
25600000000.0 0.013850632399213594 -29.801640664238406 -45.11960073067779 -113.53467036481253 -45.13405173067778 -114.61098036481255 -0.26840525650697106 -20.902798087563696
25650000000.0 0.0143815043789724 -30.025785421079373 -45.12370240809453 -114.09110304486153 -45.126973408094536 -115.19290304486154 -0.260278381378922 -21.402184912601157
25700000000.0 0.005365524774516407 -30.381358328004758 -45.146419167926986 -114.79027815980645 -45.11888516792699 -115.74747815980643 -0.2566203174039598 -21.947445333055875
25750000000.0 -0.03469191104889345 -30.774631040547828 -45.131342996372226 -115.67249198295272 -45.094591996372216 -115.9305919829527 -0.2406759809638004 -22.4139776079123
25800000000.0 -0.07906586315797795 -31.336084039259454 -45.08811164940457 -116.0419717747984 -45.101340649404555 -116.92867177479843 -0.22980860065086778 -22.92396398338404
25850000000.0 -0.07500053647740561 -31.98720590629642 -45.05710102950903 -116.61032800812013 -45.08891202950902 -117.12862800812015 -0.22711943412058758 -23.455523388696882
25900000000.0 -0.0670479486600183 -32.605264816037966 -45.0445961527935 -117.11377840586445 -45.084251152793506 -117.28017840586448 -0.22457750578824232 -23.912944224332644
25950000000.0 -0.04873678205038179 -33.24021057449671 -45.00386199472182 -117.24303286081707 -45.08538799472183 -117.94723286081704 -0.20715917521013816 -24.371734230719593
26000000000.0 -0.013820025991090319 -33.628568147190755 -44.99459057476073 -117.4484620195259 -45.07485957476072 -118.40256201952593 -0.19739007708069214 -24.831847241357757
26050000000.0 0.005770978085631926 -33.862868558683914 -45.006274350815126 -118.01377419971558 -45.05975235081513 -119.03857419971561 -0.19719124197636148 -25.359143391928413
26100000000.0 -0.0011674202176941895 -34.163729355847195 -45.03650101158268 -118.5545205203553 -45.04075901158267 -119.19992052035529 -0.18637381001707448 -25.794822669794733
26150000000.0 -0.018495850219252485 -34.46228701910718 -45.03407118152385 -119.36211154207945 -45.04910618152384 -119.5824115420794 -0.18810004172631423 -26.209261711804213
26200000000.0 -0.05077509037429844 -34.90738897254036 -44.99702940273065 -119.80417784057587 -45.019417402730646 -120.25377784057589 -0.18371972980260345 -26.735131697658506
26250000000.0 -0.06561605083499407 -35.48914730484888 -44.94948807008541 -120.41306852985231 -44.9990790700854 -120.54646852985236 -0.17341382912935102 -27.144112427489297
26300000000.0 -0.07301410402615027 -36.1566215334187 -44.897708239151164 -120.79474775812076 -44.95966923915117 -120.93514775812076 -0.169317800603717 -27.5480216134692
26350000000.0 -0.05633103326394356 -36.796583767613754 -44.85311444918367 -121.24911613621606 -44.98517244918368 -121.28831613621608 -0.16443653601238822 -28.01556202375516
26400000000.0 -0.013817260321029163 -37.24267732927617 -44.82050403355403 -121.3415124629533 -44.911093033554025 -121.8165124629533 -0.16297876075518217 -28.437778756119872
26450000000.0 0.0019404888194172467 -37.6084049139243 -44.81042139652121 -121.51346531585247 -44.85129639652121 -122.18316531585249 -0.16081708719488336 -28.857158832347668
26500000000.0 0.008100072198816399 -37.98545724627529 -44.825223363533944 -121.91134301458001 -44.87530636353395 -122.83394301458003 -0.15610843525704185 -29.185488726679775
26550000000.0 0.0023705547238319098 -38.17002865950585 -44.79967063157793 -122.42192946931488 -44.82757363157792 -123.13582946931483 -0.16071583134575496 -29.67235899048447
26600000000.0 -0.030751640996452702 -38.58280198439003 -44.77010493963873 -123.49094528254174 -44.83310593963872 -123.87844528254176 -0.14720905723949226 -30.077569213116906
26650000000.0 -0.06062086125154114 -39.14565701358502 -44.7437681475074 -123.5868550311534 -44.765395147507405 -124.11615503115345 -0.14860363096403267 -30.38220048048295
26700000000.0 -0.0776162279095411 -39.694977774457776 -44.63410035028833 -124.41912882567439 -44.735969350288315 -124.1900288256744 -0.15363292057277306 -30.830640900155075
26750000000.0 -0.07172978538654298 -40.33816870994286 -44.60604421070088 -124.50727195593035 -44.717590210700884 -124.89297195593038 -0.14730194664608007 -31.23303643511736
26800000000.0 -0.04672826819671019 -40.87553858587114 -44.55677228011047 -124.70394895416294 -44.62672528011047 -125.23364895416292 -0.15258074624920834 -31.59199018564185
26850000000.0 -0.034073575002530825 -41.33936643091847 -44.44347579766486 -125.10453165895446 -44.57356279766487 -125.42003165895443 -0.14759913311951514 -31.881227900900267
26900000000.0 -0.007418000606680599 -41.63712774376572 -44.42994538586095 -125.02642436503032 -44.549514385860945 -125.78692436503029 -0.14739107029052986 -32.31814153543555
26950000000.0 -0.0013143268026421138 -41.82874418472044 -44.41806385355581 -125.50738183738916 -44.50815685355582 -125.99218183738918 -0.14420972504937515 -32.67403172033188
27000000000.0 -0.028855685969141415 -42.23948469291624 -44.39115272853692 -125.99402774548555 -44.45138472853693 -126.67402774548556 -0.1464726936253074 -33.00191694676343
27050000000.0 -0.03791180997294704 -42.659057460610725 -44.31289488286309 -127.03082590624425 -44.383029882863084 -127.10882590624423 -0.1610077203430494 -33.32759512166658
27100000000.0 -0.07565979470499132 -43.169070057799516 -44.26861308612517 -127.30858544283508 -44.34125508612518 -127.06928544283507 -0.15314037724706786 -33.74383337386116
27150000000.0 -0.06973214515051905 -43.835039309333204 -44.188289213385474 -127.24728567298472 -44.27384421338547 -127.33958567298477 -0.14973559808626188 -34.007487234403
27200000000.0 -0.05665367577655692 -44.38327732930408 -44.136053675147515 -127.74429355976159 -44.21045367514752 -127.87749355976162 -0.15687263634803553 -34.28212393991823
27250000000.0 -0.02705269025129433 -44.92103551212339 -44.022691432664416 -128.14621025714442 -44.145567432664414 -128.25171025714442 -0.15743716179901693 -34.72484588195216
27300000000.0 0.015371343534682235 -45.32001983573545 -43.943680088949925 -128.15662852431257 -44.10567008894992 -128.61692852431258 -0.1644105267880937 -34.975980032467895
27350000000.0 0.004015812142791265 -45.614893207772155 -43.91136002969456 -128.54660259476486 -43.97301602969457 -129.00120259476486 -0.15983654291928123 -35.31910443428896
27400000000.0 0.012087029766273218 -45.98568905504499 -43.891526206036325 -129.0337671783442 -43.929379206036316 -129.42696717834414 -0.16989130261429133 -35.592430618065364
27450000000.0 -0.0072866829655521435 -46.17260268122335 -43.81620395001861 -129.77274270826197 -43.828094950018624 -129.66724270826197 -0.18230300796084453 -36.03829032102107
27500000000.0 -0.031477652913554845 -46.77810668951471 -43.73864269239304 -129.84474966431378 -43.77370369239304 -129.83134966431385 -0.17896238034937753 -36.34467594893039
27550000000.0 -0.03297758739352392 -47.449516297761676 -43.64479375643796 -130.75042324406112 -43.62261175643796 -130.06132324406113 -0.18452275245457828 -36.57438442986259
27600000000.0 -0.03653628952730406 -47.94409467602709 -43.466465668323394 -131.14297772936033 -43.556081668323394 -130.65497772936033 -0.1973553497508178 -37.03592971128579
27650000000.0 -0.021722246691968254 -48.570774029795984 -43.36883141915919 -131.32094055362776 -43.4435534191592 -130.99534055362776 -0.1999236467628387 -37.41460343417725
27700000000.0 0.014942319605064211 -49.05354059013604 -43.29255629494577 -131.77879018035154 -43.38289029494577 -131.51009018035157 -0.20418329825768286 -37.71431076680749
27750000000.0 0.03097950754824896 -49.49547954439909 -43.205319831836746 -131.67329139622612 -43.231673831836744 -131.9655913962261 -0.21616600243732106 -37.972580851657504
27800000000.0 0.049590522052893424 -49.732690278918604 -43.124276207817985 -132.10824410190244 -43.141462207817995 -132.4744441019024 -0.2225322262381417 -38.37202481237061
27850000000.0 0.02918886788363087 -50.04703698178325 -43.02815013978568 -132.62907826450785 -43.01486813978569 -132.6111782645079 -0.2240976822025254 -38.686860954783825
27900000000.0 0.013630892673513136 -50.61728463278343 -42.918441118652225 -133.13852811671762 -42.95011711865223 -133.32662811671764 -0.22568248988324957 -38.979825399374384
27950000000.0 0.00173151977627668 -51.02590495180505 -42.80199983629601 -133.273723641246 -42.790912836296016 -133.23992364124604 -0.24241239057353328 -39.31446317450498
28000000000.0 -0.026791564829214926 -51.62549539752634 -42.657876916039626 -134.19410281589097 -42.64958991603963 -133.62940281589093 -0.24649362542470576 -39.73049514863001
28050000000.0 -0.0065981954024282525 -52.31892003413968 -42.451404602387875 -134.8359172212318 -42.52348760238788 -134.34181722123176 -0.24584161029185603 -39.993645063260715
28100000000.0 0.010207429272238468 -52.82522099822053 -42.31407277918947 -135.01776991278365 -42.40160177918946 -134.80306991278363 -0.2616576905965656 -40.239947284689364
28150000000.0 0.025482337695454976 -53.256663767654935 -42.21705147873128 -135.32726609910105 -42.24508647873129 -135.38926609910104 -0.2694272882533302 -40.68534694481119
28200000000.0 0.040771427152278904 -53.6107887148008 -42.04282163553149 -135.61966571491163 -42.091736635531504 -135.46026571491166 -0.27055511456411196 -41.02510419386828
28250000000.0 0.033260558077930956 -53.99659698835441 -41.9302558621883 -135.80817815414002 -41.93151186218829 -136.12497815413997 -0.2768766672471561 -41.314758457105874
28300000000.0 0.027585090111232273 -54.38114964767573 -41.76393914718452 -136.3264876318592 -41.80398814718452 -136.51438763185917 -0.2940195809096904 -41.69380959881378
28350000000.0 0.000612234013574374 -54.74406289222421 -41.61741138565767 -137.2215945811772 -41.603695385657666 -136.91455458117716 -0.29802789180160605 -42.104919056830795
28400000000.0 -0.012974609537233539 -55.409694088865876 -41.44517834269191 -137.72090810673802 -41.451982342691906 -137.57340810673801 -0.30108859517430137 -42.41891238186143
28450000000.0 -0.006561939395320462 -55.961609383199956 -41.22187041113621 -138.12684299971926 -41.26188941113622 -138.04465299971926 -0.31258286173755034 -42.70231592348673
28500000000.0 -0.019897997939488668 -56.48113448381672 -41.00512143381907 -138.5805108958746 -41.07969543381907 -138.5148108958746 -0.3235772389987438 -43.14017019847917
28550000000.0 0.0020986715119111514 -57.06196471721326 -40.78522808077742 -139.2159402274918 -40.86819308077743 -139.1244402274918 -0.32151238125109627 -43.5176365812171
28600000000.0 0.025681090262342363 -57.47252957169968 -40.612824881587 -139.5405211148508 -40.653002881587014 -139.69075111485077 -0.3395689639778642 -43.84382970802051
28650000000.0 0.027907372182907474 -57.90474326933258 -40.41652353052896 -140.16215825316283 -40.456806530528965 -140.18445825316283 -0.35063564468440367 -44.25254967036671
28700000000.0 0.01820070827410514 -58.249280955515154 -40.19418380286822 -140.59558933293383 -40.223964802868224 -140.70976933293386 -0.3505478025650389 -44.69246279136098
28750000000.0 0.005083829966578021 -58.78720525310823 -39.96157879809554 -141.35073815652683 -39.96273679809554 -141.29036815652685 -0.3537527667585917 -45.013357815907185
28800000000.0 -0.004980564826445244 -59.2814453654507 -39.72313981714373 -142.06433151280936 -39.73451081714374 -141.88316151280935 -0.36538846362495636 -45.36635523139796
28850000000.0 -0.019985013534725843 -59.8165428992436 -39.46729738920018 -142.65066636296996 -39.50641238920018 -142.77800636296996 -0.37493356151137813 -45.85842726034376
28900000000.0 -0.022042708527832012 -60.49696704024615 -39.1708807062918 -143.414048784344 -39.19268470629179 -143.393638784344 -0.37484494560230874 -46.26263067821149
28950000000.0 -0.005426612164282909 -61.10568469245786 -38.8722182943994 -143.99363746930095 -38.9361262943994 -144.10726746930098 -0.389673641414095 -46.66047675627827
29000000000.0 0.0027094947731332616 -61.58721906732607 -38.57808940735477 -144.6073183631698 -38.63946640735477 -144.65849836316983 -0.3972497700094406 -47.095227064264556
29050000000.0 -0.0013099291306116236 -62.05105648208788 -38.2699659918524 -145.6108058484222 -38.33541899185241 -145.61295584842222 -0.40425483829927455 -47.63538399331295
29100000000.0 0.00046175673521086703 -62.51402093609216 -37.94145116399601 -146.16799172371626 -37.996504163996015 -146.33453172371625 -0.40401504792114684 -48.11094765020376
29150000000.0 -0.010219228916981038 -62.98440764028313 -37.623757052937215 -146.9104943194633 -37.6461560529372 -147.18694431946335 -0.4195055597656655 -48.535726128085
29200000000.0 -0.03278545223581776 -63.525980214128325 -37.255838329223494 -147.96034227142826 -37.2883173292235 -148.07103227142827 -0.42689700141909626 -49.10018903903711
29250000000.0 -0.05833652685039854 -64.04856596861619 -36.87149082401919 -149.15158247262698 -36.8973458240192 -149.00525247262698 -0.42712101986521644 -49.66733980203893
29300000000.0 -0.06196869735051406 -64.7107271923041 -36.43331930557677 -150.15204392351765 -36.46995430557677 -150.03011392351766 -0.44359343766455295 -50.21924291166918
29350000000.0 -0.06131303090630626 -65.32378901680156 -35.98487963523801 -151.22739299866248 -36.04464863523801 -150.99531299866246 -0.4532654153728827 -50.7752942787432
29400000000.0 -0.06881529844998224 -65.89550765998783 -35.48875924523855 -152.28156964298114 -35.56284324523855 -152.17854964298112 -0.46480488323404406 -51.38649676724652
29450000000.0 -0.05971610376340701 -66.44329488936512 -34.98685289942943 -153.4344831853689 -35.044231899429434 -153.56217318536886 -0.4713929590434869 -52.08669549049571
29500000000.0 -0.0553385255540256 -66.88368348227729 -34.43868917090218 -154.57619682768754 -34.48683417090218 -154.83200682768756 -0.4907898625798284 -52.81055981382579
29550000000.0 -0.07965630732777157 -67.42536273284139 -33.8493674565193 -156.27368802024722 -33.88569645651931 -156.3206480202472 -0.5032232596641646 -53.560718730801426
29600000000.0 -0.10684900947048401 -67.95943920607421 -33.21725230948771 -157.96982796840678 -33.2401983094877 -158.03649796840676 -0.5201804506306341 -54.44675695608839
29650000000.0 -0.11859769415357595 -68.54860158010901 -32.501044483107876 -159.90921160912126 -32.50970248310787 -159.8321416091212 -0.5423744234878801 -55.42865266785127
29700000000.0 -0.1412876337687297 -69.22482883709682 -31.708847974724033 -162.20097159741763 -31.71407697472403 -162.09158159741764 -0.5779930668215514 -56.48157877993913
29750000000.0 -0.15189415414468244 -69.93107411905679 -30.820353416533063 -164.8368550730032 -30.824713416533065 -164.6366150730032 -0.619743190500892 -57.71791898567575
29800000000.0 -0.16128394179084043 -70.5886959499678 -29.811659792306102 -167.96772869854462 -29.828962792306108 -167.8733326985446 -0.6852810183202597 -59.18043189563392
29850000000.0 -0.14935300017122366 -71.23277158263639 -28.697207247841625 -171.8512107271999 -28.702238247841624 -171.82789172719993 -0.7966522177322517 -60.95263429556356
29900000000.0 -0.16657401563416546 -71.82217753585404 -27.440950382799496 -176.91344971233542 -27.428766382799502 -177.01024071233542 -0.9718034952993837 -62.95860071788684
29950000000.0 -0.20388646072789174 -72.41815682206395 -26.008143358993845 175.9440531141564 -25.975574358993853 175.68841961415637 -1.2939556808308892 -65.51616543572604
30000000000.0 -0.23469841856119467 -72.97521758738958 -24.441803387934304 165.77276939808726 -24.374928387934315 165.24345139808727 -1.903249774639063 -68.35972619352776
30050000000.0 -0.2928930755175874 -73.48309732019463 -22.955087250106434 150.4420798393496 -22.858599250106444 149.6015988393496 -3.0814974204957135 -69.60386199950095
30100000000.0 -0.34691024559787476 -73.93406708034703 -22.089588589109105 128.90292686438903 -22.037398589109102 127.66437886438902 -4.687098697900636 -62.80425360576793
30150000000.0 -0.3527633867374872 -74.2290091594491 -22.63868284799311 105.23864069908107 -22.677565847993108 103.62629069908108 -4.616633781930238 -47.724866020012946
30200000000.0 -0.32186396013183816 -74.74950857301857 -24.47596637487007 85.88233010846305 -24.585852374870065 84.57935010846305 -3.1501101297754848 -41.86646757957716
30250000000.0 -0.2985522991008614 -75.50900891201279 -26.814798941569723 73.64136825097556 -26.98839294156972 72.38070825097554 -2.105411048687145 -42.65408571309604
30300000000.0 -0.2996440072139449 -76.28442011599422 -29.260272635596717 67.11012130368434 -29.460242635596718 66.01359130368432 -1.531531344797201 -44.76159079727315
30350000000.0 -0.3095914175012797 -77.04140336457797 -31.67375795443446 65.67388629042995 -31.894871954434457 64.67060629042994 -1.1956455332652547 -46.979086880434735
30400000000.0 -0.327945064715899 -77.73584939996104 -33.9768042310098 70.2238872669103 -34.22016523100979 69.6660472669103 -1.0061182095605683 -48.918645130733424
30450000000.0 -0.3903691661797825 -78.6385015211792 -35.61735530858838 83.2367317640059 -35.88602130858839 83.0719117640059 -0.8927460707698791 -50.52475153866257
30500000000.0 -0.4794596448405468 -79.50474430298547 -35.20430592969342 101.55040317133223 -35.396117929693425 102.16518317133225 -0.8219774358200584 -51.949377832190116
30550000000.0 -0.6210301108259343 -80.18805617444939 -32.515734851494365 111.49815018627787 -32.63848085149436 111.91609018627787 -0.7947108576900814 -53.23847026931634
30600000000.0 -0.7969148920241947 -80.32267235576585 -29.35176372881368 105.12044263134457 -29.46289272881367 105.46523263134458 -0.8082725537258555 -54.17136660882753
30650000000.0 -0.8599857303924401 -79.42746127643707 -27.487395731075345 86.63394257629557 -27.593115731075336 86.75576257629557 -0.8001514409587529 -54.59034936309961
30700000000.0 -0.7191177903711763 -78.80807657025406 -27.52731988024894 66.62779432126148 -27.630951880248936 66.65353432126147 -0.7183471428053281 -55.082454307875
30750000000.0 -0.5530704755040167 -79.21788129896376 -28.573102101326228 52.17887599898165 -28.68579110132623 52.08520599898165 -0.6385468343316002 -55.84626732880353
30800000000.0 -0.46169330782955953 -80.01002787854289 -29.82200726129735 42.72733832903565 -29.931547261297354 42.57121832903565 -0.583203727801864 -56.68224644771659
30850000000.0 -0.42348363335948375 -80.87619296336679 -30.98894543144976 36.37071226258378 -31.093012431449758 36.16135226258378 -0.5425615888723686 -57.57516518449789
30900000000.0 -0.40675363604591275 -81.74754944959479 -32.02148101783477 31.71337102467647 -32.12684901783477 31.574231024676457 -0.5085183092828932 -58.45648630694195
30950000000.0 -0.4052784091262298 -82.68729127702976 -32.913195609680216 28.04190165436744 -33.02830160968021 27.984171654367444 -0.4829284617868761 -59.264318472568405
31000000000.0 -0.4026679137493389 -83.65024373997466 -33.69322397853117 25.024634337860686 -33.822550978531176 24.923344337860673 -0.4655457811619684 -60.03976861584592
31050000000.0 -0.3988392491651354 -84.4851166135829 -34.39882867756302 22.3144059790724 -34.51154467756301 22.332115979072398 -0.4374532738394244 -60.865096767370865
31100000000.0 -0.400023635458496 -85.33029053133076 -35.01399544096826 20.13601207289279 -35.15103644096826 20.01951207289277 -0.42886631134753406 -61.622957559535465
31150000000.0 -0.3965715549078054 -86.16830233198709 -35.54926349336978 17.98635482568455 -35.67647249336977 17.875564825684545 -0.4134892908847471 -62.34773519955584
31200000000.0 -0.41599924892932094 -87.02190397862637 -36.02299642814263 15.904972432690197 -36.182009428142635 15.7634124326902 -0.4075252431722249 -63.022802883774915
31250000000.0 -0.441609097642513 -87.87406029611493 -36.46378198274184 13.769614994689283 -36.604114982741834 13.733584994689284 -0.39016174405258564 -63.770050361510265
31300000000.0 -0.47711818859707844 -88.77981881046398 -36.82100715276158 11.56570876283372 -36.95805615276158 11.669218762833717 -0.37697933602131223 -64.4911146989493
31350000000.0 -0.5260957962706997 -89.83971186719032 -37.12058931550239 9.306929323302626 -37.250139315502395 9.365769323302613 -0.36518034447912046 -65.15956754633922
31400000000.0 -0.5932996494837804 -90.92074479272067 -37.361519958388605 6.587560524282997 -37.4891489583886 6.7045005242829845 -0.3583319190883273 -65.8580775547459
31450000000.0 -0.6918962833087052 -92.1379319292311 -37.53111436964013 3.2614090548345116 -37.655882369640125 3.453552054834515 -0.35200061022909335 -66.56788362854188
31500000000.0 -0.8426852531665201 -93.37603208188082 -37.64446299894489 -0.9247573696712267 -37.787691998944894 -0.8300653696712506 -0.34367342889690056 -67.22994658884431
31550000000.0 -1.1117125592044694 -94.2812510778313 -37.77549027457654 -6.732560142473414 -37.93540627457655 -6.580784142473403 -0.33569942959129595 -67.8614926658914
31600000000.0 -1.5207949389535047 -94.1021091140806 -38.14454953067594 -15.139736525828841 -38.29806053067594 -15.085036525828833 -0.32099378842763954 -68.50386107116722
31650000000.0 -1.8842300394176177 -91.4739311209639 -39.18447192780454 -25.31391035182089 -39.38071892780454 -25.3794803518209 -0.3134669027814779 -69.17581931162887
31700000000.0 -1.773318565865413 -87.5887366934283 -41.25577384198848 -32.12365367620568 -41.48037184198848 -32.35429367620568 -0.30387401641874395 -69.77779744929988
31750000000.0 -1.3287174996907034 -86.02173619376052 -43.55749026765672 -30.61676881730541 -43.81063626765672 -30.38736881730541 -0.29287798999775977 -70.3897828163619
31800000000.0 -0.9621094061120954 -86.49211823331994 -45.00523144873763 -22.72726756115421 -45.37033744873764 -22.1099975611542 -0.28676964526659043 -71.03944432924159
31850000000.0 -0.7212895930308301 -87.63542764815107 -45.45918529542653 -15.526399141889062 -45.73595629542653 -14.242072141889057 -0.28512396207965635 -71.66453317966743
31900000000.0 -0.5771328234830804 -88.83374904837027 -45.52609319700998 -10.809876136188691 -45.82564219700998 -9.616070136188716 -0.27918368552696377 -72.2662136741979
31950000000.0 -0.48202876272568973 -89.94456802124515 -45.54253781818695 -7.909374115798868 -45.74348181818695 -6.383460115798853 -0.27182748576861016 -72.87081114192173
32000000000.0 -0.41003097384989806 -90.91636250560127 -45.52912891459098 -6.388180324227853 -45.70455191459098 -5.014131324227827 -0.265735838374711 -73.43253174583326
32050000000.0 -0.36664772706005594 -91.7603567266087 -45.5404824514742 -5.356845605311437 -45.69784645147419 -3.9250383053114195 -0.25970193301818556 -74.00430217011635
32100000000.0 -0.339186517805869 -92.5365883339457 -45.53225911784162 -5.1099469899202745 -45.715432117841615 -3.4659458899202464 -0.2585182745170396 -74.60404035461636
32150000000.0 -0.318207617209123 -93.31470939726773 -45.63888731304892 -5.055453140139855 -45.72979131304892 -3.326046440139841 -0.25456512810455273 -75.16769713893201
32200000000.0 -0.3053769801271599 -94.05098552901791 -45.69046298514976 -4.889033879135644 -45.75711898514975 -3.697140079135667 -0.246113835845552 -75.72667820061814
32250000000.0 -0.2886796918032849 -94.73970965133802 -45.72090340176389 -4.931977285569661 -45.83134740176389 -3.453892685569663 -0.2407744099100016 -76.30380840073346
32300000000.0 -0.2711868907477593 -95.4246903537271 -45.789978157316256 -5.186495090494955 -45.92513515731626 -3.588005090494975 -0.24308564266657448 -76.87844201953487
32350000000.0 -0.2510505695301343 -96.06936005833244 -45.89665528400192 -5.165009106439112 -45.95094928400192 -3.808568106439117 -0.23824194521551603 -77.39129130266453
32400000000.0 -0.23406701890885134 -96.67664392245936 -45.97850809164743 -5.18104985973817 -46.019819091647435 -3.830144859738164 -0.24283523215155167 -77.96485832286785
32450000000.0 -0.2222259595477296 -97.24250721996921 -46.01008275097512 -5.458834913523087 -46.05819375097512 -3.6493049135230993 -0.23805376589058247 -78.49598322841074
32500000000.0 -0.21649041087864596 -97.81770027142703 -46.04211052738263 -5.252704722183616 -46.08172652738263 -3.922709722183601 -0.23589657297234123 -79.04294238982993
32550000000.0 -0.20296380079371296 -98.38511809039612 -46.065719974034906 -5.297937544689582 -46.14476897403491 -3.6489695446895913 -0.22680483615551378 -79.55163595290746
32600000000.0 -0.1959208449037569 -98.9284851405361 -46.10242337475705 -5.190963272024763 -46.120405374757055 -3.8638962720247654 -0.2248475900017729 -80.03588059677436
32650000000.0 -0.19053064773704834 -99.52369628800678 -46.08346279670329 -5.685162673703356 -46.1551207967033 -3.9289526737033387 -0.21838686410869987 -80.52370666654159
32700000000.0 -0.1828107870676733 -100.07226369260972 -46.10289680703051 -5.480220798446097 -46.12477380703051 -3.7904967984460933 -0.21291102039071685 -81.00421257143188
32750000000.0 -0.16551389237654118 -100.60563039670544 -46.20524890541665 -5.443963984096168 -46.108084905416646 -3.977297984096163 -0.20995222433694483 -81.48164524197811
32800000000.0 -0.15467830677943134 -101.09473557481765 -46.11814514157644 -5.463102403478081 -46.08825614157645 -3.9293124034780846 -0.20696169376698137 -81.92199354922954
32850000000.0 -0.14380805392312193 -101.59971543285128 -46.05583829538048 -5.6568368102479 -46.08792329538048 -3.971493810247873 -0.1989183288204745 -82.337728179263
32900000000.0 -0.14367538448761308 -102.04320662834205 -46.027236099766846 -5.4480387398387276 -45.98269409976684 -3.9301077398387485 -0.18837852836009095 -82.75681640092179
32950000000.0 -0.13950984587876256 -102.50585313845725 -45.97553238272895 -5.7450669917143165 -45.951447382728944 -4.123991991714324 -0.18620232559624503 -83.19435081788058
33000000000.0 -0.13997911897461984 -102.95682224177101 -45.92548866752085 -5.576509821157673 -45.86546666752085 -4.18436182115768 -0.18116336171248237 -83.58751327313264
33050000000.0 -0.1394117250188085 -103.42136068258088 -45.815389602082526 -5.500388528182086 -45.77615760208254 -3.8418315281820883 -0.17425732653690923 -84.0177778037633
33100000000.0 -0.1338771943986325 -103.88802557280735 -45.75301926385719 -5.748625570650811 -45.67189526385719 -4.208669570650802 -0.16483340380999262 -84.40370732198873
33150000000.0 -0.12655842266529427 -104.29910995346255 -45.651451836614356 -5.6876455017839245 -45.60587183661436 -4.090282501783925 -0.16106685433736528 -84.79371007765081
33200000000.0 -0.1177101987488435 -104.76395036905764 -45.48846519637082 -5.877545532838243 -45.48458219637082 -4.374726532838269 -0.15768046489140058 -85.17218726490346
33250000000.0 -0.11442633998882515 -105.15413740825 -45.399450284111865 -6.071321461578345 -45.33262528411187 -4.279120461578362 -0.14898561249273246 -85.5474603033993
33300000000.0 -0.10912159731754126 -105.51561826623438 -45.324653411911704 -6.177184585686752 -45.2290484119117 -4.529649585686734 -0.14421728626873398 -85.94093663799062
33350000000.0 -0.11357470967908634 -105.93216028840202 -45.14565703214558 -6.13703121252432 -45.116287032145564 -4.8646752125243005 -0.14075761456181662 -86.31517260280299
33400000000.0 -0.10992166639635925 -106.37052995693492 -45.04244461647688 -6.562541406753362 -44.99325761647688 -5.145235406753367 -0.1355944408120689 -86.72741506910604
33450000000.0 -0.1088249313911674 -106.78703816123426 -44.880275494991295 -6.741508259029056 -44.836254494991294 -5.353777259029075 -0.1272726710884716 -87.07011130723164
33500000000.0 -0.10592497911859011 -107.22346168664617 -44.74743970562943 -7.078865569272052 -44.68300470562943 -5.631855569272016 -0.11801845836062105 -87.40504892490415
33550000000.0 -0.10123812363385329 -107.6667786501787 -44.58366975057971 -7.1138597592377515 -44.48888175057971 -5.877029759237747 -0.1148835510555331 -87.6905659869911
33600000000.0 -0.0996064919286735 -108.04546570401928 -44.42188544187396 -7.6905758845279975 -44.38631644187396 -6.191155884528005 -0.09973087659654453 -88.01978807183764
33650000000.0 -0.09542008536970553 -108.41973727489628 -44.26530795858932 -7.676030956498019 -44.22616495858931 -6.462470956498032 -0.0888205959665718 -88.33463182347833
33700000000.0 -0.09936307425412438 -108.81436092413682 -44.09658774261918 -8.092801058943676 -44.058105742619176 -6.71446105894365 -0.08599734500677536 -88.59301479591393
33750000000.0 -0.10704474846253509 -109.21698336372637 -43.917290239350194 -8.136019329263293 -43.871077239350186 -7.155429329263286 -0.07437128355749241 -88.92421689672105
33800000000.0 -0.10840299926490846 -109.5748512901577 -43.77108853559963 -8.797906671576385 -43.72726653559964 -7.5909166715763705 -0.06193632863967791 -89.2083747421342
33850000000.0 -0.11582612130092687 -109.99112569443605 -43.58267967497565 -8.743362401882619 -43.53479467497566 -7.887322401882613 -0.05495861624105255 -89.44810091557235
33900000000.0 -0.12218378176447872 -110.43803145599055 -43.40792883708755 -9.270879794688142 -43.38071183708756 -8.241279794688161 -0.04530802034562519 -89.70082942817666
33950000000.0 -0.12919914068642868 -110.85506642264961 -43.229055293182704 -9.674675185545844 -43.1948602931827 -8.36658518554584 -0.0281231412618593 -90.00822488635961
34000000000.0 -0.12727524041407148 -111.19327235325704 -43.010906721691114 -9.51339052789367 -42.99935572169111 -8.585950527893672 -0.01728303987911882 -90.26647452011521
34050000000.0 -0.1294413366872066 -111.56294147317686 -42.85552834167053 -9.874598668078638 -42.81313434167052 -9.207358668078642 -0.01226249806676785 -90.49615255725972
34100000000.0 -0.13579496080669223 -111.89828988982576 -42.63469759828864 -10.528140060402682 -42.63832859828862 -9.606280060402682 0.0037128732762396746 -90.74796841480232
34150000000.0 -0.1450936294632093 -112.28107890960439 -42.44708264908933 -10.762694291550858 -42.45874864908933 -9.980944291550868 0.011426613512222971 -90.97519369407429
34200000000.0 -0.15594759670037228 -112.68183589998159 -42.250125952362296 -11.061062258359437 -42.2405469523623 -10.210212258359439 0.019891501239664537 -91.19610733320593
34250000000.0 -0.17527104061504017 -113.12851387921724 -42.071418678205646 -11.407303106870838 -42.08217367820565 -10.813343106870821 0.026951790653331774 -91.42396016072743
34300000000.0 -0.18322715813178317 -113.53609159569386 -41.88386226217495 -11.886080235657683 -41.89674826217495 -11.149760235657704 0.04576876619707935 -91.68775195265718
34350000000.0 -0.18762516315069183 -113.98111532673148 -41.697881580130684 -12.537593754610041 -41.68698058013067 -11.752103754610038 0.05701338745040391 -91.90717456348257
34400000000.0 -0.18326045337556307 -114.41101691051523 -41.48185050422329 -12.841969304342765 -41.515515504223295 -11.996159304342756 0.06872938983491822 -92.12146058609018
34450000000.0 -0.18502819035405194 -114.75443070921389 -41.27872924472699 -13.19843019801971 -41.297939244727 -12.25369019801969 0.07740143870242483 -92.3421260776652
34500000000.0 -0.19522179532530257 -115.098484236486 -41.05168483558168 -13.50916446210969 -41.0843268355817 -12.907824462109696 0.09330845146577114 -92.58071304994819
34550000000.0 -0.20245818792248835 -115.46556508684101 -40.858183556836345 -13.98767443844333 -40.89104255683633 -13.239174438443346 0.10410950620697053 -92.80860956997515
34600000000.0 -0.21460425429837368 -115.82821578066103 -40.651329714012164 -14.302787976823193 -40.667405714012176 -13.702997976823191 0.11803707603843591 -93.0612156953426
34650000000.0 -0.23023014202267067 -116.26016803194725 -40.48237509652061 -14.718825767252774 -40.44220809652061 -14.09852576725279 0.13041024465170314 -93.26493208371336
34700000000.0 -0.24795958861365472 -116.73037570373106 -40.264576304397266 -15.247961586597912 -40.26897630439727 -14.50697158659793 0.1502420844522373 -93.4427961880292
34750000000.0 -0.24814612608118877 -117.22832554290491 -40.045209931693826 -15.633373326785419 -40.029452931693825 -14.914923326785411 0.15467981551761872 -93.65546054634592
34800000000.0 -0.2479228747524656 -117.69049553852517 -39.84575021370536 -16.160018435623332 -39.81236821370536 -15.316258435623334 0.16888442401459064 -93.8569278973006
34850000000.0 -0.24243826917312522 -118.07766931572608 -39.577854727394104 -16.65242249893748 -39.605668727394104 -15.743282498937475 0.1765907701824943 -94.09120572839528
34900000000.0 -0.2415927822221816 -118.47520870226901 -39.373715849408114 -16.920598754114774 -39.39510284940811 -16.256198754114767 0.18538671152047245 -94.28025667138597
34950000000.0 -0.24964381921948187 -118.81626427323674 -39.14966587802523 -17.266098004659884 -39.15896487802523 -16.63377800465989 0.1991300605596128 -94.48692039992564
35000000000.0 -0.26773737021160665 -119.19364085365586 -38.919401092656685 -17.6853531492793 -38.93009109265669 -16.955163149279297 0.213760042826887 -94.71345854245149
35050000000.0 -0.28284958278996714 -119.61699496641366 -38.69522456067773 -18.039964415375824 -38.713198560677725 -17.48239441537583 0.2220020272316427 -94.9469056545587
35100000000.0 -0.2971239406785243 -120.1163200213035 -38.507908663510335 -18.45084866724055 -38.495300663510335 -17.79069866724057 0.22904250521116343 -95.14345350021527
35150000000.0 -0.3039275958943367 -120.67050314103567 -38.29177125401658 -18.896633714303917 -38.277535254016584 -18.30772371430391 0.2317572292065192 -95.41230818270772
35200000000.0 -0.2982205275538815 -121.24522055122857 -38.048088385080455 -19.533103906956175 -38.02711838508045 -18.851503906956168 0.23498235103160572 -95.65156075506539
35250000000.0 -0.29095740645928836 -121.81505572971733 -37.8204882988289 -19.999239744277617 -37.7852142988289 -19.442689744277626 0.24740302510554146 -95.86072912952547
35300000000.0 -0.2811551523300134 -122.23274307616788 -37.556527260207126 -20.51242960649314 -37.55741826020712 -19.745579606493138 0.257875253920994 -96.09238245009455
35350000000.0 -0.27830415826522337 -122.62082647253897 -37.324476091129355 -20.910223175688067 -37.31075309112936 -20.317403175688057 0.26221658820153504 -96.37813732286178
35400000000.0 -0.2776999167279 -123.06467944481463 -37.08174825677809 -21.503964660929498 -37.06328425677809 -20.682854660929507 0.2698837907597576 -96.55924519453818
35450000000.0 -0.29709569086563453 -123.50344172624821 -36.822758867972816 -21.84519979259316 -36.820856867972815 -21.08161979259316 0.2730273377670519 -96.80207807751101
35500000000.0 -0.31130340729578054 -124.03750667783663 -36.574149512276335 -22.243119402837387 -36.59389551227634 -21.6773394028374 0.28085185855658884 -97.04821623131534
35550000000.0 -0.3141503483056899 -124.60779759227613 -36.360833396798796 -22.75156351641153 -36.334271396798805 -22.120613516411527 0.2799068565576958 -97.33570109565284
35600000000.0 -0.31877712680284453 -125.30544764780026 -36.11363408353631 -23.237475529888236 -36.05831008353631 -22.665485529888223 0.2904542610433588 -97.46788127691642
35650000000.0 -0.3080941568114778 -125.89581396439605 -35.86085692918074 -23.816329608059885 -35.84015492918075 -23.22416960805989 0.28842111051082875 -97.72898148184771
35700000000.0 -0.29096940143850125 -126.41837056073099 -35.6168371064356 -24.339341043106558 -35.5669101064356 -23.685421043106576 0.28755755665600546 -98.01553448907202
35750000000.0 -0.27411936985478536 -126.94825358525051 -35.34189017816371 -24.955409957522484 -35.318732178163714 -24.2394279575225 0.2875355572096688 -98.27367523145395
35800000000.0 -0.2591165397645886 -127.3730763957071 -35.07805825840264 -25.37681145480509 -35.07906425840264 -24.713490454805076 0.2831638090980374 -98.48750904765005
35850000000.0 -0.27388368989978334 -127.81247002705256 -34.81594259349621 -25.889461250182272 -34.81364459349621 -25.211662250182265 0.28380545552252856 -98.74405709775473
35900000000.0 -0.2832733506892832 -128.2996508993541 -34.5613099023564 -26.316255485310705 -34.53976890235641 -25.713558585310704 0.2796442674804723 -99.06795899632688
35950000000.0 -0.30398227063341904 -128.88051036254663 -34.30829684057535 -26.739578166473407 -34.28745784057535 -26.227362166473416 0.28012198227464474 -99.32078495728615
36000000000.0 -0.32265539458510206 -129.59857922581295 -34.06577498108262 -27.26265092357766 -34.029867981082624 -26.718881923577634 0.26730992148744015 -99.58477301259755
36050000000.0 -0.31251404329700644 -130.26784593409573 -33.80862134248793 -27.9572952033898 -33.76892334248793 -27.412013203389808 0.2626790465392798 -100.01211913673035
36100000000.0 -0.29869270702847056 -130.9917096844043 -33.56373864615564 -28.639717468507115 -33.49388564615565 -27.84647746850711 0.2587663680967652 -100.34015856871021
36150000000.0 -0.26820384593084823 -131.72436921129346 -33.28819444523528 -29.304021395373162 -33.223227445235274 -28.533091395373145 0.24880792168480775 -100.68725623716013
36200000000.0 -0.24841941054146807 -132.17541655957478 -32.98535014293539 -29.95421811107035 -32.9461861429354 -29.112508111070365 0.24450974418782445 -101.05201746008382
36250000000.0 -0.2365471043280634 -132.65114953850986 -32.706312364770355 -30.406251078150277 -32.67188736477035 -29.785461078150277 0.23301410239126324 -101.48954115511201
36300000000.0 -0.23904653500842366 -133.22182947208412 -32.41979185135624 -30.875224152437724 -32.39824285135624 -30.39795415243772 0.22346080438248053 -101.81072703961418
36350000000.0 -0.2574515011900443 -133.83080770094594 -32.14526657941525 -31.4953880022653 -32.12521857941524 -31.004118002265283 0.21611200265096098 -102.25281075369419
36400000000.0 -0.26871453354648256 -134.5309022490205 -31.897093631932762 -31.952555748043128 -31.85627763193275 -31.53498574804313 0.20562620598728892 -102.68693303065778
36450000000.0 -0.26664038407147594 -135.25565144326467 -31.63166584030855 -32.653252376853885 -31.56649284030855 -32.315142376853885 0.20142173606341007 -103.1561413008477
36500000000.0 -0.251365762528422 -136.05498602547877 -31.35136152165837 -33.35961958927078 -31.28660652165837 -32.843939589270775 0.18608177200886827 -103.46325465338579
36550000000.0 -0.222657083674858 -136.84167398012463 -31.08967719993387 -34.121705815110445 -30.992028199933873 -33.45479581511042 0.1717909040209427 -103.89217833726481
36600000000.0 -0.1910947242268143 -137.42446116465956 -30.794208264915255 -34.73348086120053 -30.713460264915252 -34.10688086120055 0.16037679461681942 -104.32485888041629
36650000000.0 -0.16159154483708366 -137.9849393555961 -30.479045524030322 -35.4509151281156 -30.416170524030328 -34.825975128115616 0.14257006485569007 -104.79571205281339
36700000000.0 -0.14576096612665693 -138.46939317362714 -30.162941890066026 -36.110402266160946 -30.11653089006603 -35.468182266160944 0.12370384100914583 -105.25849639778777
36750000000.0 -0.15452225040187081 -139.04870147373092 -29.859127031772683 -36.635702901406226 -29.822768031772693 -36.108802901406236 0.10742386559350085 -105.7501887624771
36800000000.0 -0.16592379416927802 -139.74042375500628 -29.57374028460675 -37.205217460040735 -29.527020284606746 -36.80413746004072 0.09460890993576751 -106.28023621442259
36850000000.0 -0.17666014599222613 -140.48143191049473 -29.27921781625301 -37.77122190206179 -29.218630816253008 -37.514641902061804 0.08705828857852878 -106.7284746496429
36900000000.0 -0.1733625401330498 -141.34992376566868 -28.9878563202077 -38.41270902100471 -28.900583320207698 -38.22669902100472 0.06217851161493177 -107.21264445036289
36950000000.0 -0.15691636119513774 -142.23432721353555 -28.700817610366126 -39.21657343363704 -28.595398610366132 -39.02487343363705 0.04534395035100402 -107.84488221189466
37000000000.0 -0.12138159846999987 -143.0701831861189 -28.391929994792093 -40.07195408183355 -28.29061699479209 -39.750164081833546 0.03127329529424985 -108.38809825299921
37050000000.0 -0.09633707418450177 -143.70956406465746 -28.07498014776224 -40.87633278221705 -27.97434414776224 -40.57383278221704 0.012904513724858437 -108.95210576063621
37100000000.0 -0.07566637412076574 -144.32265435340278 -27.730697156875145 -41.684427744670586 -27.658891156875143 -41.31829774467061 -0.001839761420515864 -109.55375037260757
37150000000.0 -0.07304246014734429 -144.8642514521881 -27.383511003824474 -42.36547929367209 -27.341221003824472 -42.073279293672066 -0.01771672481294348 -110.16805302356208
37200000000.0 -0.08702747060863969 -145.57222667941767 -27.042481488181448 -43.04448817429071 -27.010731488181445 -42.88516817429068 -0.03669430698670644 -110.77371256956002
37250000000.0 -0.1015015742685483 -146.3244300530026 -26.71793163263439 -43.68748087054121 -26.678212632634384 -43.69688087054121 -0.048631577063927095 -111.3679180729215
37300000000.0 -0.1255348647852714 -147.09459202307076 -26.39677117631091 -44.35813899563747 -26.353567176310904 -44.365148995637476 -0.07899460587346488 -112.0749341510264
37350000000.0 -0.11490362142747154 -148.04553385531923 -26.073729752924155 -45.28431534568891 -26.00623975292415 -45.35642534568892 -0.09258608853594785 -112.87735879367811
37400000000.0 -0.08857176279828931 -148.89464484841756 -25.740493612647164 -46.15848629682595 -25.655132612647172 -46.22622629682595 -0.10829270458155912 -113.5813112639624
37450000000.0 -0.05542456584634692 -149.75005592789833 -25.388880357659836 -47.20031158220752 -25.300904357659828 -47.11363158220751 -0.12393299100717112 -114.29116887871098
37500000000.0 -0.026367043776583766 -150.3207437883676 -25.016084953856137 -48.17216062760141 -24.942622953856137 -47.96659062760143 -0.1464048426439141 -115.05882959177507
37550000000.0 -0.023917032849279325 -150.82022095127917 -24.622220224005122 -49.035563894854036 -24.57517722400512 -48.75199389485404 -0.1600565641018606 -115.88119196217384
37600000000.0 -0.02552569371895498 -151.54374666639885 -24.243377652011002 -49.94637220553725 -24.206432652010996 -49.73206220553726 -0.1811223110666851 -116.72542886541191
37650000000.0 -0.03658661949320828 -152.28533398472692 -23.857608324390323 -50.781091760931396 -23.834217324390323 -50.69204176093138 -0.19956319197097577 -117.47975903432008
37700000000.0 -0.06344070101582286 -153.04055112190815 -23.47592543352668 -51.62861826312772 -23.449590433526673 -51.75174826312771 -0.21938682425184497 -118.45804831667529
37750000000.0 -0.06898460869516476 -154.03068035394347 -23.092143900361272 -52.52617985977364 -23.050373900361272 -52.80882985977363 -0.2366072181253913 -119.34125792944758
37800000000.0 -0.06788424714815325 -154.99516829296834 -22.728022599295578 -53.556522195121254 -22.654118599295586 -53.78333219512124 -0.26716389785094613 -120.2469077854601
37850000000.0 -0.054801715627380454 -155.9541734780844 -22.334527439244813 -54.65243401173405 -22.251560439244816 -54.90454401173405 -0.28666954187799637 -121.25478883217556
37900000000.0 -0.02726908922032535 -156.75152749554215 -21.914984271673408 -55.953005227617 -21.830413271673414 -56.016795227616974 -0.3111860461218778 -122.32089212508477
37950000000.0 -0.0077364623709386265 -157.48045534203865 -21.481622149989995 -57.26403557436543 -21.404470149989994 -57.19069557436539 -0.34038275700784576 -123.44941192753424
38000000000.0 -0.0013823191033468262 -158.14151125411917 -21.021613674734773 -58.49770876079533 -20.968999674734768 -58.395038760795366 -0.3680250992905656 -124.581911847875
38050000000.0 -0.03238688140453029 -158.78815493708692 -20.5469460245734 -59.63845672244122 -20.522142024573398 -59.5654067224412 -0.39521411736788664 -125.69056076580158
38100000000.0 -0.061725810652696535 -159.67952908507334 -20.071076143553114 -60.757715284832614 -20.06825314355312 -60.904605284832584 -0.4316480314160343 -126.92135864921845
38150000000.0 -0.0897393052021716 -160.59977283911815 -19.606681548651927 -61.99601440964333 -19.60019554865192 -62.23880440964333 -0.46832976022258715 -128.1775447771279
38200000000.0 -0.13223777104159123 -161.59621158451355 -19.1294026090048 -63.32795897054464 -19.114905609004794 -63.682928970544616 -0.4995565465449275 -129.56988170010476
38250000000.0 -0.13691381283622545 -162.74159205327646 -18.641663772366982 -64.74701439177933 -18.60136377236698 -65.15662439177932 -0.547402867304506 -130.94270005718516
38300000000.0 -0.1244473622791868 -163.79621121900547 -18.14186579233577 -66.41224975895463 -18.08432079233578 -66.73260975895464 -0.6057211214887249 -132.50291672529565
38350000000.0 -0.12649490719857273 -164.80327043002427 -17.604688057617896 -68.26110054595979 -17.538236057617898 -68.4813005459598 -0.649052869948703 -134.1044411072276
38400000000.0 -0.13469015159844294 -165.63132625130956 -17.03129023881745 -70.21833748457877 -16.973257238817453 -70.23294748457873 -0.7061270619683733 -135.86565317661507
38450000000.0 -0.16502627770414563 -166.48250433692473 -16.42412017774792 -72.18094418033564 -16.395352177747917 -72.22558418033562 -0.7864697152148247 -137.80736122408678
38500000000.0 -0.21243252414298996 -167.4215741707439 -15.80815684912941 -74.29910115902689 -15.798206849129413 -74.36001115902687 -0.8812294766019495 -139.93098525205045
38550000000.0 -0.2861419608612508 -168.32372430188803 -15.155731984450735 -76.50554791728204 -15.165632984450736 -76.60301791728205 -0.9937568600210671 -142.25783851785368
38600000000.0 -0.3597730593243871 -169.59222034836017 -14.50407738541964 -78.93715513519382 -14.514431385419638 -79.1994751351938 -1.1249408054480095 -144.86098632921082
38650000000.0 -0.4043475664258411 -170.79543694832932 -13.823256977572722 -81.67690637528344 -13.819683977572726 -82.03049637528342 -1.3036374564278574 -147.75914213190399
38700000000.0 -0.48526688850504895 -172.0831193146361 -13.125638593327547 -84.83606003587474 -13.115015593327549 -85.20331003587474 -1.5155714934481614 -151.07552137445714
38750000000.0 -0.5441913125642499 -173.37041940733567 -12.399218215449277 -88.43948696607751 -12.362486215449273 -88.78074696607754 -1.7928789187847995 -154.82062035154334
38800000000.0 -0.6242252942918737 -174.40566584529174 -11.647385781685195 -92.665159786723 -11.607356781685198 -92.82354978672299 -2.1629178040385204 -159.20921259502765
38850000000.0 -0.7283479167404839 -175.35401425463863 -10.859076970326775 -97.37819407152756 -10.827747970326778 -97.56143407152757 -2.6732256342926366 -164.35916560009701
38900000000.0 -0.8888488052757849 -176.17655841871672 -10.071555612475917 -102.93385664657909 -10.042554612475918 -102.97986664657908 -3.358497316320369 -170.45433965385655
38950000000.0 -1.1018759951012451 -176.93205402147115 -9.272427141864434 -109.17698694286759 -9.269610141864433 -109.20038694286761 -4.346169078379104 -177.66407906325531
39000000000.0 -1.3205088187185388 -177.51158380500377 -8.540933808290802 -116.32639073754925 -8.5433488082908 -116.47669073754923 -5.765343167575544 173.26367430235786
39050000000.0 -1.577242682743304 -177.62492321044095 -7.900798838283777 -124.550653063669 -7.905446838283774 -124.653453063669 -7.9113564665328635 161.68625289126285
39100000000.0 -1.7951695244929142 -177.46728508209532 -7.412976533401164 -133.63812414471198 -7.423117533401165 -133.81042414471202 -11.341450198821976 145.04544148963063
39150000000.0 -1.9000632721054496 -176.81484045042583 -7.120588077283456 -143.3781194465316 -7.125118077283458 -143.52921944653158 -17.103860750821408 110.29305840770543
39200000000.0 -1.9051850884055108 -175.78936964054003 -7.0472673546898745 -153.44313289908388 -7.059342354689879 -153.5325328990839 -18.344545246659525 23.859098318922346
39250000000.0 -1.807987284935929 -174.9709619299855 -7.206833567875927 -163.3256409632429 -7.215957567875927 -163.40584096324298 -12.184008433452789 -18.582265030975343
39300000000.0 -1.6391706171517397 -174.43438017453917 -7.547710784768611 -172.500664769235 -7.567437784768614 -172.50356476923503 -8.396485542597844 -36.590508365293076
39350000000.0 -1.471041316342965 -174.51845949606843 -8.032551060354482 179.3025124791763 -8.065995060354483 179.25661247917628 -6.051640774497057 -48.47842274944507
39400000000.0 -1.3036178549084754 -175.13248469130306 -8.629853645074167 172.06032744584047 -8.650433645074164 171.9575274458405 -4.492172359874197 -57.630909107108856
39450000000.0 -1.1860436311855846 -176.15301867212042 -9.264903357947551 165.79954442772421 -9.28832635794755 165.6897444277242 -3.416351431809624 -64.82724815057698
39500000000.0 -1.0796349074589893 -177.65993671631622 -9.940421476335565 160.27328743257024 -9.942963476335558 160.08158743257022 -2.6378726882326493 -70.91489879156346
39550000000.0 -0.9904753320150468 -179.2193548095411 -10.613224293840071 155.52938446831158 -10.601144293840072 155.41088446831162 -2.066611265549844 -75.70109174893679
39600000000.0 -0.9141237013460785 179.11099814306328 -11.24759873769925 151.2736854728896 -11.23268273769925 151.18188547288958 -1.6104566633602226 -79.95598080977108
39650000000.0 -0.8369143488689514 177.47450238411523 -11.86968776697995 147.46880799099114 -11.847169766979949 147.51000799099117 -1.284440101781048 -83.43033987029516
39700000000.0 -0.7991739128600406 175.92755253162287 -12.437371592157584 143.94336041561365 -12.434075592157585 144.1294604156137 -0.9905874030252759 -86.56381676711398
39750000000.0 -0.7881475485355771 174.2762952535649 -12.995206349773687 141.08391534373814 -13.008188349773686 141.24361534373816 -0.7760733170952017 -89.01185045466464
39800000000.0 -0.7997448761914943 172.67687390311445 -13.50818881004201 138.29162219831773 -13.532292810042005 138.45262219831775 -0.5413000749311511 -91.40400021575796
39850000000.0 -0.8294467978689648 170.85600756724844 -14.01175191206346 135.9702344314521 -14.047438912063457 136.0272344314521 -0.4014035285356609 -93.22361935667683
39900000000.0 -0.8787176521544855 168.93264517496448 -14.498485761591382 133.5365077398903 -14.527741761591376 133.48060773989033 -0.18014075943217686 -95.12897657270092
39950000000.0 -0.9250340438454496 166.84956493749158 -14.988025375657228 131.60611459460705 -15.005083375657229 131.49051459460705 -0.06263058094303832 -96.37165746351947
40000000000.0 -1.0048540721052985 164.90409353229487 -15.371783441878332 128.73850579243137 -15.371822441878338 128.63800579243136 0.33486645308177015 -98.27193834773361
