# MHZ S MA R 50

0 62.86e-9 0 1 0 1 0 62.86e-9 0
6 1.073e-3 -88.655 1 -0.708 1 -0.708 1.073e-3 -88.655
12 2.145e-3 -89.363 1 -1.416 1 -1.416 2.145e-3 -89.363
18 3.217e-3 -90.071 1 -2.125 1 -2.125 3.217e-3 -90.071
24 4.287e-3 -90.779 1 -2.833 1 -2.833 4.287e-3 -90.779
30 5.357e-3 -91.486 1 -3.541 1 -3.541 5.357e-3 -91.486
36 6.425e-3 -92.194 1 -4.249 1 -4.249 6.425e-3 -92.194
42 7.491e-3 -92.901 1 -4.958 1 -4.958 7.491e-3 -92.901
48 8.556e-3 -93.609 1 -5.666 1 -5.666 8.556e-3 -93.609
54 9.618e-3 -94.316 0.999 -6.374 0.999 -6.374 9.618e-3 -94.316
60 0.011 -95.023 0.999 -7.082 0.999 -7.082 0.011 -95.023
66 0.012 -95.73 0.999 -7.791 0.999 -7.791 0.012 -95.73
72 0.013 -96.437 0.999 -8.499 0.999 -8.499 0.013 -96.437
78 0.014 -97.144 0.999 -9.207 0.999 -9.207 0.014 -97.144
84 0.015 -97.851 0.999 -9.916 0.999 -9.916 0.015 -97.851
90 0.016 -98.558 0.999 -10.624 0.999 -10.624 0.016 -98.558
96 0.017 -99.264 0.999 -11.332 0.999 -11.332 0.017 -99.264
102 0.018 -99.971 0.999 -12.041 0.999 -12.041 0.018 -99.971
108 0.019 -100.677 0.999 -12.749 0.999 -12.749 0.019 -100.677
114 0.02 -101.383 0.999 -13.458 0.999 -13.458 0.02 -101.383
120 0.021 -102.089 0.999 -14.166 0.999 -14.166 0.021 -102.089
126 0.022 -102.795 0.999 -14.875 0.999 -14.875 0.022 -102.795
132 0.023 -103.501 0.999 -15.583 0.999 -15.583 0.023 -103.501
138 0.024 -104.207 0.999 -16.292 0.999 -16.292 0.024 -104.207
144 0.025 -104.913 0.998 -17 0.998 -17 0.025 -104.913
150 0.026 -105.619 0.998 -17.709 0.998 -17.709 0.026 -105.619
156 0.027 -106.324 0.998 -18.418 0.998 -18.418 0.027 -106.324
162 0.028 -107.03 0.998 -19.126 0.998 -19.126 0.028 -107.03
168 0.029 -107.735 0.998 -19.835 0.998 -19.835 0.029 -107.735
174 0.03 -108.441 0.998 -20.544 0.998 -20.544 0.03 -108.441
180 0.031 -109.146 0.998 -21.253 0.998 -21.253 0.031 -109.146
186 0.032 -109.851 0.998 -21.961 0.998 -21.961 0.032 -109.851
192 0.033 -110.556 0.998 -22.67 0.998 -22.67 0.033 -110.556
198 0.034 -111.261 0.998 -23.379 0.998 -23.379 0.034 -111.261
204 0.035 -111.966 0.998 -24.088 0.998 -24.088 0.035 -111.966
210 0.036 -112.671 0.998 -24.797 0.998 -24.797 0.036 -112.671
216 0.037 -113.375 0.997 -25.506 0.997 -25.506 0.037 -113.375
222 0.037 -114.08 0.997 -26.215 0.997 -26.215 0.037 -114.08
228 0.038 -114.785 0.997 -26.924 0.997 -26.924 0.038 -114.785
234 0.039 -115.489 0.997 -27.634 0.997 -27.634 0.039 -115.489
240 0.04 -116.193 0.997 -28.343 0.997 -28.343 0.04 -116.193
246 0.041 -116.898 0.997 -29.052 0.997 -29.052 0.041 -116.898
252 0.042 -117.602 0.997 -29.762 0.997 -29.762 0.042 -117.602
258 0.043 -118.306 0.997 -30.471 0.997 -30.471 0.043 -118.306
264 0.043 -119.01 0.997 -31.181 0.997 -31.181 0.043 -119.01
270 0.044 -119.714 0.997 -31.89 0.997 -31.89 0.044 -119.714
276 0.045 -120.418 0.997 -32.6 0.997 -32.6 0.045 -120.418
282 0.046 -121.122 0.996 -33.31 0.996 -33.31 0.046 -121.122
288 0.047 -121.825 0.996 -34.019 0.996 -34.019 0.047 -121.825
294 0.047 -122.529 0.996 -34.729 0.996 -34.729 0.047 -122.529
300 0.048 -123.232 0.996 -35.439 0.996 -35.439 0.048 -123.233
306 0.049 -123.936 0.996 -36.149 0.996 -36.149 0.049 -123.936
312 0.05 -124.639 0.996 -36.86 0.996 -36.86 0.05 -124.639
318 0.05 -125.343 0.996 -37.57 0.996 -37.57 0.05 -125.343
324 0.051 -126.046 0.996 -38.28 0.996 -38.28 0.051 -126.046
330 0.052 -126.749 0.996 -38.991 0.996 -38.991 0.052 -126.749
336 0.052 -127.452 0.996 -39.701 0.996 -39.701 0.052 -127.452
342 0.053 -128.155 0.996 -40.412 0.996 -40.412 0.053 -128.155
348 0.054 -128.858 0.995 -41.123 0.995 -41.123 0.054 -128.858
354 0.054 -129.561 0.995 -41.833 0.995 -41.833 0.054 -129.561
360 0.055 -130.264 0.995 -42.544 0.995 -42.544 0.055 -130.264
366 0.056 -130.967 0.995 -43.256 0.995 -43.256 0.056 -130.967
372 0.056 -131.67 0.995 -43.967 0.995 -43.967 0.056 -131.67
378 0.057 -132.372 0.995 -44.678 0.995 -44.678 0.057 -132.372
384 0.057 -133.075 0.995 -45.39 0.995 -45.39 0.057 -133.075
390 0.058 -133.777 0.995 -46.101 0.995 -46.101 0.058 -133.778
396 0.059 -134.48 0.995 -46.813 0.995 -46.813 0.059 -134.48
402 0.059 -135.182 0.995 -47.525 0.995 -47.525 0.059 -135.182
408 0.06 -135.885 0.995 -48.237 0.995 -48.237 0.06 -135.885
414 0.06 -136.587 0.994 -48.949 0.994 -48.949 0.06 -136.587
420 0.061 -137.289 0.994 -49.661 0.994 -49.661 0.061 -137.289
426 0.061 -137.991 0.994 -50.374 0.994 -50.374 0.061 -137.991
432 0.061 -138.693 0.994 -51.087 0.994 -51.087 0.061 -138.693
438 0.062 -139.395 0.994 -51.8 0.994 -51.8 0.062 -139.395
444 0.062 -140.097 0.994 -52.513 0.994 -52.513 0.062 -140.097
450 0.063 -140.799 0.994 -53.226 0.994 -53.226 0.063 -140.799
456 0.063 -141.501 0.994 -53.939 0.994 -53.939 0.063 -141.501
462 0.063 -142.203 0.994 -54.653 0.994 -54.653 0.063 -142.203
468 0.064 -142.905 0.994 -55.366 0.994 -55.366 0.064 -142.905
474 0.064 -143.606 0.994 -56.08 0.994 -56.08 0.064 -143.606
480 0.065 -144.308 0.994 -56.794 0.994 -56.794 0.065 -144.308
486 0.065 -145.009 0.993 -57.509 0.993 -57.509 0.065 -145.01
492 0.065 -145.711 0.993 -58.223 0.993 -58.223 0.065 -145.711
498 0.065 -146.412 0.993 -58.938 0.993 -58.938 0.065 -146.412
504 0.066 -147.114 0.993 -59.653 0.993 -59.653 0.066 -147.114
510 0.066 -147.815 0.993 -60.368 0.993 -60.368 0.066 -147.815
516 0.066 -148.516 0.993 -61.084 0.993 -61.084 0.066 -148.516
522 0.066 -149.217 0.993 -61.799 0.993 -61.799 0.066 -149.217
528 0.067 -149.918 0.993 -62.515 0.993 -62.515 0.067 -149.918
534 0.067 -150.619 0.993 -63.232 0.993 -63.232 0.067 -150.619
540 0.067 -151.32 0.993 -63.948 0.993 -63.948 0.067 -151.32
546 0.067 -152.021 0.993 -64.665 0.993 -64.665 0.067 -152.021
552 0.067 -152.722 0.993 -65.382 0.993 -65.382 0.067 -152.722
558 0.067 -153.422 0.993 -66.099 0.993 -66.099 0.067 -153.422
564 0.067 -154.123 0.993 -66.816 0.993 -66.816 0.067 -154.123
570 0.067 -154.823 0.992 -67.534 0.992 -67.534 0.067 -154.823
576 0.067 -155.523 0.992 -68.252 0.992 -68.252 0.067 -155.524
582 0.068 -156.224 0.992 -68.97 0.992 -68.97 0.068 -156.224
588 0.068 -156.924 0.992 -69.689 0.992 -69.689 0.068 -156.924
594 0.068 -157.624 0.992 -70.408 0.992 -70.408 0.068 -157.624
600 0.068 -158.324 0.992 -71.127 0.992 -71.127 0.068 -158.324
606 0.067 -159.023 0.992 -71.846 0.992 -71.846 0.067 -159.023
612 0.067 -159.723 0.992 -72.566 0.992 -72.566 0.067 -159.723
618 0.067 -160.422 0.992 -73.286 0.992 -73.286 0.067 -160.422
624 0.067 -161.122 0.992 -74.007 0.992 -74.007 0.067 -161.122
630 0.067 -161.821 0.992 -74.728 0.992 -74.728 0.067 -161.821
636 0.067 -162.52 0.992 -75.449 0.992 -75.449 0.067 -162.52
642 0.067 -163.218 0.992 -76.17 0.992 -76.17 0.067 -163.219
648 0.067 -163.917 0.992 -76.892 0.992 -76.892 0.067 -163.917
654 0.067 -164.615 0.992 -77.614 0.992 -77.614 0.067 -164.615
660 0.066 -165.313 0.992 -78.337 0.992 -78.337 0.066 -165.314
666 0.066 -166.011 0.992 -79.06 0.992 -79.06 0.066 -166.011
672 0.066 -166.709 0.992 -79.783 0.992 -79.783 0.066 -166.709
678 0.066 -167.406 0.991 -80.507 0.991 -80.507 0.066 -167.406
684 0.065 -168.103 0.991 -81.231 0.991 -81.231 0.065 -168.103
690 0.065 -168.8 0.991 -81.955 0.991 -81.955 0.065 -168.8
696 0.065 -169.497 0.991 -82.68 0.991 -82.68 0.065 -169.497
702 0.065 -170.193 0.991 -83.405 0.991 -83.405 0.065 -170.193
708 0.064 -170.888 0.991 -84.131 0.991 -84.131 0.064 -170.889
714 0.064 -171.584 0.991 -84.857 0.991 -84.857 0.064 -171.584
720 0.064 -172.279 0.991 -85.583 0.991 -85.583 0.064 -172.279
726 0.063 -172.973 0.991 -86.31 0.991 -86.31 0.063 -172.973
732 0.063 -173.667 0.991 -87.037 0.991 -87.037 0.063 -173.668
738 0.062 -174.361 0.991 -87.765 0.991 -87.765 0.062 -174.361
744 0.062 -175.054 0.991 -88.493 0.991 -88.493 0.062 -175.054
750 0.062 -175.746 0.991 -89.222 0.991 -89.222 0.062 -175.747
756 0.061 -176.438 0.991 -89.951 0.991 -89.951 0.061 -176.438
762 0.061 -177.13 0.991 -90.68 0.991 -90.68 0.061 -177.13
768 0.06 -177.82 0.991 -91.41 0.991 -91.41 0.06 -177.82
774 0.06 -178.51 0.991 -92.141 0.991 -92.141 0.06 -178.51
780 0.059 -179.199 0.991 -92.872 0.991 -92.872 0.059 -179.199
786 0.059 -179.887 0.991 -93.603 0.991 -93.603 0.059 -179.887
792 0.058 179.425 0.991 -94.335 0.991 -94.335 0.058 179.425
798 0.057 178.739 0.991 -95.067 0.991 -95.067 0.057 178.739
804 0.057 178.054 0.991 -95.8 0.991 -95.8 0.057 178.053
810 0.056 177.369 0.991 -96.533 0.991 -96.533 0.056 177.369
816 0.056 176.686 0.991 -97.267 0.991 -97.267 0.056 176.686
822 0.055 176.004 0.991 -98.001 0.991 -98.001 0.055 176.004
828 0.054 175.323 0.991 -98.736 0.991 -98.736 0.054 175.323
834 0.054 174.644 0.991 -99.471 0.991 -99.471 0.054 174.644
840 0.053 173.966 0.991 -100.207 0.991 -100.207 0.053 173.966
846 0.052 173.29 0.99 -100.944 0.99 -100.944 0.052 173.29
852 0.052 172.616 0.99 -101.68 0.99 -101.68 0.052 172.615
858 0.051 171.943 0.99 -102.418 0.99 -102.418 0.051 171.943
864 0.05 171.272 0.99 -103.156 0.99 -103.156 0.05 171.272
870 0.049 170.604 0.99 -103.894 0.99 -103.894 0.049 170.604
876 0.049 169.938 0.99 -104.633 0.99 -104.633 0.049 169.937
882 0.048 169.274 0.99 -105.373 0.99 -105.373 0.048 169.274
888 0.047 168.613 0.99 -106.113 0.99 -106.113 0.047 168.612
894 0.046 167.955 0.99 -106.853 0.99 -106.853 0.046 167.954
900 0.045 167.299 0.99 -107.595 0.99 -107.595 0.045 167.299
906 0.044 166.647 0.99 -108.336 0.99 -108.336 0.044 166.647
912 0.044 165.999 0.99 -109.079 0.99 -109.079 0.044 165.999
918 0.043 165.355 0.99 -109.822 0.99 -109.822 0.043 165.354
924 0.042 164.714 0.99 -110.565 0.99 -110.565 0.042 164.714
930 0.041 164.079 0.99 -111.309 0.99 -111.309 0.041 164.078
936 0.04 163.448 0.99 -112.054 0.99 -112.054 0.04 163.448
942 0.039 162.823 0.99 -112.799 0.99 -112.799 0.039 162.822
948 0.038 162.203 0.99 -113.545 0.99 -113.545 0.038 162.203
954 0.037 161.591 0.99 -114.291 0.99 -114.291 0.037 161.59
960 0.036 160.985 0.99 -115.039 0.99 -115.039 0.036 160.984
966 0.035 160.387 0.99 -115.786 0.99 -115.786 0.035 160.386
972 0.035 159.797 0.99 -116.534 0.99 -116.534 0.035 159.796
978 0.034 159.217 0.99 -117.283 0.99 -117.283 0.034 159.216
984 0.033 158.647 0.99 -118.033 0.99 -118.033 0.033 158.646
990 0.032 158.089 0.99 -118.783 0.99 -118.783 0.032 158.088
996 0.031 157.543 0.99 -119.533 0.99 -119.533 0.031 157.543
1002 0.03 157.012 0.99 -120.285 0.99 -120.285 0.03 157.011
1008 0.029 156.497 0.99 -121.037 0.99 -121.037 0.029 156.496
1014 0.028 156 0.99 -121.789 0.99 -121.789 0.028 155.999
1020 0.027 155.523 0.99 -122.542 0.99 -122.542 0.027 155.522
1026 0.025 155.069 0.99 -123.296 0.99 -123.296 0.025 155.068
1032 0.024 154.641 0.99 -124.051 0.99 -124.051 0.024 154.64
1038 0.023 154.243 0.989 -124.806 0.989 -124.806 0.023 154.242
1044 0.022 153.88 0.989 -125.561 0.989 -125.561 0.022 153.879
1050 0.021 153.556 0.989 -126.318 0.989 -126.318 0.021 153.555
1056 0.02 153.28 0.989 -127.075 0.989 -127.075 0.02 153.279
1062 0.019 153.058 0.989 -127.832 0.989 -127.832 0.019 153.057
1068 0.018 152.902 0.989 -128.591 0.989 -128.591 0.018 152.901
1074 0.017 152.824 0.989 -129.35 0.989 -129.35 0.017 152.822
1080 0.016 152.84 0.989 -130.109 0.989 -130.109 0.016 152.839
1086 0.015 152.973 0.989 -130.87 0.989 -130.87 0.015 152.971
1092 0.014 153.249 0.989 -131.631 0.989 -131.631 0.014 153.248
1098 0.013 153.708 0.989 -132.392 0.989 -132.392 0.013 153.706
1104 0.011 154.401 0.989 -133.154 0.989 -133.154 0.011 154.399
1110 0.01 155.4 0.989 -133.917 0.989 -133.917 0.01 155.397
1116 9.319e-3 156.81 0.989 -134.681 0.989 -134.681 9.319e-3 156.807
1122 8.258e-3 158.786 0.989 -135.445 0.989 -135.445 8.258e-3 158.784
1128 7.218e-3 161.566 0.989 -136.21 0.989 -136.21 7.218e-3 161.563
1134 6.212e-3 165.522 0.989 -136.976 0.989 -136.976 6.211e-3 165.518
1140 5.261e-3 171.247 0.989 -137.742 0.989 -137.742 5.261e-3 171.243
1146 4.405e-3 179.663 0.989 -138.509 0.989 -138.509 4.405e-3 179.659
1152 3.711e-3 -168.015 0.988 -139.277 0.988 -139.277 3.711e-3 -168.018
1158 3.286e-3 -151.09 0.988 -140.045 0.988 -140.045 3.285e-3 -151.091
1164 3.238e-3 -131.456 0.988 -140.814 0.988 -140.814 3.238e-3 -131.454
1170 3.584e-3 -113.573 0.988 -141.584 0.988 -141.584 3.584e-3 -113.569
1176 4.229e-3 -100.159 0.988 -142.354 0.988 -142.354 4.229e-3 -100.154
1182 5.06e-3 -90.927 0.988 -143.126 0.988 -143.126 5.06e-3 -90.922
1188 5.999e-3 -84.661 0.988 -143.897 0.988 -143.897 5.999e-3 -84.657
1194 7.004e-3 -80.352 0.988 -144.67 0.988 -144.67 7.003e-3 -80.349
1200 8.048e-3 -77.338 0.988 -145.443 0.988 -145.443 8.048e-3 -77.335
1206 9.118e-3 -75.203 0.988 -146.217 0.988 -146.217 9.117e-3 -75.2
1212 0.01 -73.683 0.988 -146.992 0.988 -146.992 0.01 -73.68
1218 0.011 -72.606 0.988 -147.767 0.988 -147.767 0.011 -72.604
1224 0.012 -71.859 0.988 -148.543 0.988 -148.543 0.012 -71.857
1230 0.014 -71.362 0.988 -149.32 0.988 -149.32 0.014 -71.36
1236 0.015 -71.059 0.987 -150.097 0.987 -150.097 0.015 -71.057
1242 0.016 -70.909 0.987 -150.876 0.987 -150.876 0.016 -70.907
1248 0.017 -70.882 0.987 -151.655 0.987 -151.655 0.017 -70.881
1254 0.018 -70.956 0.987 -152.434 0.987 -152.434 0.018 -70.954
1260 0.019 -71.113 0.987 -153.215 0.987 -153.215 0.019 -71.111
1266 0.02 -71.338 0.987 -153.996 0.987 -153.996 0.02 -71.337
1272 0.021 -71.622 0.987 -154.778 0.987 -154.778 0.021 -71.621
1278 0.022 -71.956 0.987 -155.56 0.987 -155.56 0.022 -71.954
1284 0.023 -72.332 0.987 -156.344 0.987 -156.344 0.023 -72.331
1290 0.025 -72.745 0.987 -157.128 0.987 -157.128 0.025 -72.744
1296 0.026 -73.19 0.987 -157.913 0.987 -157.913 0.026 -73.189
1302 0.027 -73.664 0.986 -158.698 0.986 -158.698 0.027 -73.662
1308 0.028 -74.162 0.986 -159.484 0.986 -159.484 0.028 -74.161
1314 0.029 -74.682 0.986 -160.272 0.986 -160.272 0.029 -74.681
1320 0.03 -75.221 0.986 -161.059 0.986 -161.059 0.03 -75.22
1326 0.031 -75.778 0.986 -161.848 0.986 -161.848 0.031 -75.777
1332 0.032 -76.351 0.986 -162.637 0.986 -162.637 0.032 -76.35
1338 0.033 -76.938 0.986 -163.428 0.986 -163.428 0.033 -76.937
1344 0.034 -77.538 0.986 -164.218 0.986 -164.218 0.034 -77.537
1350 0.035 -78.15 0.986 -165.01 0.986 -165.01 0.035 -78.149
1356 0.036 -78.772 0.985 -165.803 0.985 -165.803 0.036 -78.771
1362 0.037 -79.404 0.985 -166.596 0.985 -166.596 0.037 -79.404
1368 0.038 -80.046 0.985 -167.39 0.985 -167.39 0.038 -80.045
1374 0.039 -80.695 0.985 -168.185 0.985 -168.185 0.039 -80.694
1380 0.04 -81.352 0.985 -168.981 0.985 -168.981 0.04 -81.351
1386 0.041 -82.016 0.985 -169.777 0.985 -169.777 0.041 -82.015
1392 0.042 -82.687 0.985 -170.574 0.985 -170.574 0.042 -82.686
1398 0.043 -83.364 0.985 -171.372 0.985 -171.372 0.043 -83.363
1404 0.044 -84.046 0.985 -172.171 0.985 -172.171 0.044 -84.045
1410 0.045 -84.734 0.984 -172.971 0.984 -172.971 0.045 -84.733
1416 0.045 -85.427 0.984 -173.772 0.984 -173.772 0.045 -85.426
1422 0.046 -86.124 0.984 -174.573 0.984 -174.573 0.046 -86.123
1428 0.047 -86.826 0.984 -175.375 0.984 -175.375 0.047 -86.825
1434 0.048 -87.532 0.984 -176.178 0.984 -176.178 0.048 -87.531
1440 0.049 -88.242 0.984 -176.982 0.984 -176.982 0.049 -88.241
1446 0.05 -88.956 0.984 -177.787 0.984 -177.787 0.05 -88.955
1452 0.05 -89.673 0.984 -178.593 0.984 -178.593 0.05 -89.672
1458 0.051 -90.393 0.984 -179.399 0.984 -179.399 0.051 -90.393
1464 0.052 -91.117 0.983 179.794 0.983 179.794 0.052 -91.116
1470 0.053 -91.844 0.983 178.985 0.983 178.985 0.053 -91.843
1476 0.054 -92.573 0.983 178.176 0.983 178.176 0.054 -92.572
1482 0.054 -93.305 0.983 177.366 0.983 177.366 0.054 -93.305
1488 0.055 -94.04 0.983 176.555 0.983 176.555 0.055 -94.039
1494 0.056 -94.777 0.983 175.743 0.983 175.743 0.056 -94.777
1500 0.056 -95.517 0.983 174.931 0.983 174.931 0.056 -95.516
1506 0.057 -96.259 0.983 174.117 0.983 174.117 0.057 -96.258
1512 0.058 -97.003 0.983 173.302 0.983 173.302 0.058 -97.002
1518 0.058 -97.749 0.982 172.487 0.982 172.487 0.058 -97.749
1524 0.059 -98.497 0.982 171.67 0.982 171.67 0.059 -98.497
1530 0.059 -99.248 0.982 170.853 0.982 170.853 0.059 -99.247
1536 0.06 -100 0.982 170.034 0.982 170.034 0.06 -99.999
1542 0.06 -100.753 0.982 169.215 0.982 169.215 0.06 -100.753
1548 0.061 -101.509 0.982 168.395 0.982 168.395 0.061 -101.508
1554 0.061 -102.266 0.982 167.573 0.982 167.573 0.061 -102.265
1560 0.062 -103.025 0.982 166.751 0.982 166.751 0.062 -103.024
1566 0.062 -103.785 0.981 165.928 0.981 165.928 0.062 -103.784
1572 0.063 -104.547 0.981 165.103 0.981 165.103 0.063 -104.546
1578 0.063 -105.31 0.981 164.278 0.981 164.278 0.063 -105.309
1584 0.064 -106.075 0.981 163.451 0.981 163.451 0.064 -106.074
1590 0.064 -106.841 0.981 162.624 0.981 162.624 0.064 -106.84
1596 0.064 -107.608 0.981 161.795 0.981 161.795 0.064 -107.607
1602 0.065 -108.376 0.981 160.966 0.981 160.966 0.065 -108.376
1608 0.065 -109.146 0.981 160.135 0.981 160.135 0.065 -109.145
1614 0.065 -109.917 0.981 159.304 0.981 159.304 0.065 -109.916
1620 0.065 -110.689 0.981 158.471 0.981 158.471 0.065 -110.688
1626 0.066 -111.462 0.98 157.637 0.98 157.637 0.066 -111.461
1632 0.066 -112.236 0.98 156.802 0.98 156.802 0.066 -112.235
1638 0.066 -113.011 0.98 155.966 0.98 155.966 0.066 -113.011
1644 0.066 -113.787 0.98 155.128 0.98 155.128 0.066 -113.787
1650 0.066 -114.564 0.98 154.29 0.98 154.29 0.066 -114.563
1656 0.066 -115.342 0.98 153.451 0.98 153.451 0.066 -115.341
1662 0.067 -116.121 0.98 152.61 0.98 152.61 0.067 -116.12
1668 0.067 -116.9 0.98 151.768 0.98 151.768 0.067 -116.899
1674 0.067 -117.68 0.98 150.925 0.98 150.925 0.067 -117.679
1680 0.067 -118.461 0.98 150.081 0.98 150.081 0.067 -118.46
1686 0.067 -119.242 0.979 149.235 0.979 149.235 0.067 -119.242
1692 0.067 -120.025 0.979 148.389 0.979 148.389 0.067 -120.024
1698 0.067 -120.807 0.979 147.541 0.979 147.541 0.067 -120.807
1704 0.067 -121.591 0.979 146.692 0.979 146.692 0.067 -121.59
1710 0.066 -122.374 0.979 145.841 0.979 145.841 0.066 -122.374
1716 0.066 -123.158 0.979 144.99 0.979 144.99 0.066 -123.158
1722 0.066 -123.943 0.979 144.137 0.979 144.137 0.066 -123.942
1728 0.066 -124.728 0.979 143.283 0.979 143.283 0.066 -124.727
1734 0.066 -125.513 0.979 142.427 0.979 142.427 0.066 -125.512
1740 0.066 -126.298 0.979 141.57 0.979 141.57 0.066 -126.297
1746 0.065 -127.083 0.979 140.712 0.979 140.712 0.065 -127.082
1752 0.065 -127.869 0.978 139.853 0.978 139.853 0.065 -127.868
1758 0.065 -128.654 0.978 138.992 0.978 138.992 0.065 -128.653
1764 0.064 -129.439 0.978 138.13 0.978 138.13 0.064 -129.439
1770 0.064 -130.225 0.978 137.267 0.978 137.267 0.064 -130.224
1776 0.064 -131.009 0.978 136.402 0.978 136.402 0.064 -131.009
1782 0.063 -131.794 0.978 135.535 0.978 135.535 0.063 -131.793
1788 0.063 -132.578 0.978 134.668 0.978 134.668 0.063 -132.577
1794 0.062 -133.362 0.978 133.799 0.978 133.799 0.062 -133.361
1800 0.062 -134.145 0.978 132.928 0.978 132.928 0.062 -134.144
1806 0.061 -134.927 0.978 132.056 0.978 132.056 0.061 -134.926
1812 0.061 -135.708 0.978 131.183 0.978 131.183 0.061 -135.708
1818 0.06 -136.489 0.978 130.308 0.978 130.308 0.06 -136.488
1824 0.06 -137.268 0.978 129.432 0.978 129.432 0.06 -137.267
1830 0.059 -138.046 0.978 128.554 0.978 128.554 0.059 -138.045
1836 0.059 -138.822 0.977 127.675 0.977 127.675 0.059 -138.822
1842 0.058 -139.597 0.977 126.794 0.977 126.794 0.058 -139.596
1848 0.057 -140.37 0.977 125.912 0.977 125.912 0.057 -140.369
1854 0.057 -141.141 0.977 125.028 0.977 125.028 0.057 -141.14
1860 0.056 -141.91 0.977 124.142 0.977 124.142 0.056 -141.909
1866 0.055 -142.676 0.977 123.255 0.977 123.255 0.055 -142.675
1872 0.054 -143.439 0.977 122.367 0.977 122.367 0.054 -143.438
1878 0.054 -144.199 0.977 121.477 0.977 121.477 0.054 -144.198
1884 0.053 -144.956 0.977 120.585 0.977 120.585 0.053 -144.955
1890 0.052 -145.709 0.977 119.692 0.977 119.692 0.052 -145.708
1896 0.051 -146.458 0.977 118.797 0.977 118.797 0.051 -146.457
1902 0.05 -147.203 0.977 117.901 0.977 117.901 0.05 -147.202
1908 0.049 -147.942 0.977 117.002 0.977 117.002 0.049 -147.941
1914 0.048 -148.676 0.977 116.103 0.977 116.103 0.048 -148.675
1920 0.048 -149.404 0.977 115.201 0.977 115.201 0.048 -149.403
1926 0.047 -150.125 0.976 114.298 0.976 114.298 0.047 -150.124
1932 0.046 -150.839 0.976 113.393 0.976 113.393 0.046 -150.837
1938 0.045 -151.544 0.976 112.487 0.976 112.487 0.045 -151.543
1944 0.044 -152.241 0.976 111.578 0.976 111.578 0.044 -152.239
1950 0.043 -152.927 0.976 110.669 0.976 110.669 0.043 -152.926
1956 0.041 -153.602 0.976 109.757 0.976 109.757 0.041 -153.601
1962 0.04 -154.265 0.976 108.844 0.976 108.844 0.04 -154.264
1968 0.039 -154.914 0.976 107.928 0.976 107.928 0.039 -154.913
1974 0.038 -155.548 0.976 107.012 0.976 107.012 0.038 -155.547
1980 0.037 -156.165 0.976 106.093 0.976 106.093 0.037 -156.163
1986 0.036 -156.762 0.976 105.172 0.976 105.172 0.036 -156.76
1992 0.035 -157.337 0.976 104.25 0.976 104.25 0.035 -157.336
1998 0.034 -157.889 0.976 103.326 0.976 103.326 0.034 -157.887
2004 0.032 -158.412 0.975 102.4 0.975 102.4 0.032 -158.41
2010 0.031 -158.904 0.975 101.473 0.975 101.473 0.031 -158.902
2016 0.03 -159.36 0.975 100.543 0.975 100.543 0.03 -159.358
2022 0.029 -159.775 0.975 99.612 0.975 99.612 0.029 -159.773
2028 0.027 -160.142 0.975 98.679 0.975 98.679 0.027 -160.14
2034 0.026 -160.453 0.975 97.744 0.975 97.744 0.026 -160.451
2040 0.025 -160.701 0.975 96.807 0.975 96.807 0.025 -160.699
2046 0.024 -160.872 0.975 95.868 0.975 95.868 0.024 -160.87
2052 0.022 -160.954 0.975 94.928 0.975 94.928 0.022 -160.951
2058 0.021 -160.928 0.975 93.985 0.975 93.985 0.021 -160.925
2064 0.02 -160.772 0.975 93.041 0.975 93.041 0.02 -160.77
2070 0.018 -160.459 0.975 92.094 0.975 92.094 0.018 -160.456
2076 0.017 -159.951 0.974 91.146 0.974 91.146 0.017 -159.948
2082 0.016 -159.2 0.974 90.196 0.974 90.196 0.016 -159.196
2088 0.015 -158.141 0.974 89.244 0.974 89.244 0.015 -158.137
2094 0.013 -156.686 0.974 88.29 0.974 88.29 0.013 -156.682
2100 0.012 -154.715 0.974 87.333 0.974 87.333 0.012 -154.71
2106 0.011 -152.059 0.974 86.375 0.974 86.375 0.011 -152.054
2112 9.616e-3 -148.484 0.974 85.415 0.974 85.415 9.617e-3 -148.479
2118 8.504e-3 -143.667 0.974 84.453 0.974 84.453 8.505e-3 -143.662
2124 7.498e-3 -137.194 0.974 83.489 0.974 83.489 7.499e-3 -137.189
2130 6.651e-3 -128.609 0.973 82.523 0.973 82.523 6.652e-3 -128.605
2136 6.034e-3 -117.651 0.973 81.555 0.973 81.555 6.035e-3 -117.648
2142 5.726e-3 -104.702 0.973 80.585 0.973 80.585 5.727e-3 -104.701
2148 5.778e-3 -91.093 0.973 79.613 0.973 79.613 5.779e-3 -91.095
2154 6.184e-3 -78.563 0.973 78.639 0.973 78.639 6.185e-3 -78.567
2160 6.883e-3 -68.214 0.973 77.663 0.973 77.663 6.884e-3 -68.219
2166 7.797e-3 -60.215 0.973 76.685 0.973 76.685 7.797e-3 -60.22
2172 8.859e-3 -54.22 0.972 75.704 0.972 75.704 8.859e-3 -54.225
2178 0.01 -49.773 0.972 74.722 0.972 74.722 0.01 -49.778
2184 0.011 -46.48 0.972 73.737 0.972 73.737 0.011 -46.485
2190 0.013 -44.043 0.972 72.751 0.972 72.751 0.013 -44.047
2196 0.014 -42.246 0.972 71.762 0.972 71.762 0.014 -42.25
2202 0.015 -40.935 0.972 70.771 0.972 70.771 0.015 -40.939
2208 0.017 -39.998 0.972 69.778 0.972 69.778 0.017 -40.002
2214 0.018 -39.354 0.971 68.783 0.971 68.783 0.018 -39.358
2220 0.019 -38.944 0.971 67.786 0.971 67.786 0.019 -38.947
2226 0.021 -38.721 0.971 66.786 0.971 66.786 0.021 -38.724
2232 0.022 -38.653 0.971 65.785 0.971 65.785 0.022 -38.655
2238 0.023 -38.711 0.971 64.781 0.971 64.781 0.023 -38.713
2244 0.025 -38.875 0.971 63.775 0.971 63.775 0.025 -38.878
2250 0.026 -39.129 0.97 62.767 0.97 62.767 0.026 -39.132
2256 0.027 -39.46 0.97 61.756 0.97 61.756 0.027 -39.462
2262 0.029 -39.856 0.97 60.743 0.97 60.743 0.029 -39.858
2268 0.03 -40.309 0.97 59.728 0.97 59.728 0.03 -40.311
2274 0.031 -40.811 0.97 58.711 0.97 58.711 0.031 -40.813
2280 0.033 -41.357 0.97 57.692 0.97 57.692 0.033 -41.359
2286 0.034 -41.941 0.969 56.67 0.969 56.67 0.034 -41.943
2292 0.035 -42.559 0.969 55.646 0.969 55.646 0.035 -42.561
2298 0.037 -43.208 0.969 54.619 0.969 54.619 0.037 -43.209
2304 0.038 -43.883 0.969 53.59 0.969 53.59 0.038 -43.885
2310 0.039 -44.584 0.969 52.559 0.969 52.559 0.039 -44.586
2316 0.04 -45.307 0.968 51.526 0.968 51.526 0.04 -45.308
2322 0.042 -46.05 0.968 50.49 0.968 50.49 0.042 -46.051
2328 0.043 -46.811 0.968 49.451 0.968 49.451 0.043 -46.813
2334 0.044 -47.589 0.968 48.411 0.968 48.411 0.044 -47.591
2340 0.045 -48.383 0.968 47.368 0.968 47.368 0.045 -48.385
2346 0.046 -49.192 0.967 46.322 0.967 46.322 0.046 -49.193
2352 0.047 -50.013 0.967 45.274 0.967 45.274 0.047 -50.015
2358 0.048 -50.847 0.967 44.223 0.967 44.223 0.048 -50.848
2364 0.049 -51.692 0.967 43.17 0.967 43.17 0.049 -51.694
2370 0.05 -52.549 0.967 42.114 0.967 42.114 0.05 -52.55
2376 0.051 -53.415 0.966 41.056 0.966 41.056 0.051 -53.416
2382 0.052 -54.29 0.966 39.995 0.966 39.995 0.052 -54.291
2388 0.053 -55.174 0.966 38.932 0.966 38.932 0.053 -55.176
2394 0.054 -56.067 0.966 37.866 0.966 37.866 0.054 -56.068
2400 0.055 -56.967 0.966 36.797 0.966 36.797 0.055 -56.968
2406 0.056 -57.875 0.965 35.726 0.965 35.726 0.056 -57.876
2412 0.057 -58.79 0.965 34.652 0.965 34.652 0.057 -58.791
2418 0.058 -59.711 0.965 33.575 0.965 33.575 0.058 -59.713
2424 0.058 -60.639 0.965 32.496 0.965 32.496 0.058 -60.64
2430 0.059 -61.573 0.965 31.413 0.965 31.413 0.059 -61.574
2436 0.06 -62.513 0.964 30.328 0.964 30.328 0.06 -62.514
2442 0.06 -63.458 0.964 29.241 0.964 29.241 0.06 -63.459
2448 0.061 -64.408 0.964 28.15 0.964 28.15 0.061 -64.409
2454 0.062 -65.363 0.964 27.056 0.964 27.056 0.062 -65.364
2460 0.062 -66.323 0.963 25.96 0.963 25.96 0.062 -66.324
2466 0.063 -67.288 0.963 24.86 0.963 24.86 0.063 -67.289
2472 0.063 -68.256 0.963 23.758 0.963 23.758 0.063 -68.257
2478 0.064 -69.229 0.963 22.653 0.963 22.653 0.064 -69.23
2484 0.064 -70.206 0.963 21.544 0.963 21.544 0.064 -70.207
2490 0.064 -71.187 0.962 20.433 0.962 20.433 0.064 -71.188
2496 0.065 -72.172 0.962 19.318 0.962 19.318 0.065 -72.173
2502 0.065 -73.159 0.962 18.2 0.962 18.2 0.065 -73.16
2508 0.065 -74.151 0.962 17.08 0.962 17.08 0.065 -74.152
2514 0.065 -75.145 0.962 15.956 0.962 15.956 0.065 -75.146
2520 0.065 -76.142 0.961 14.828 0.961 14.828 0.065 -76.143
2526 0.065 -77.142 0.961 13.698 0.961 13.698 0.065 -77.143
2532 0.066 -78.145 0.961 12.564 0.961 12.564 0.066 -78.146
2538 0.066 -79.15 0.961 11.427 0.961 11.427 0.066 -79.151
2544 0.065 -80.157 0.961 10.286 0.961 10.286 0.065 -80.158
2550 0.065 -81.167 0.961 9.143 0.961 9.143 0.065 -81.167
2556 0.065 -82.178 0.96 7.995 0.96 7.995 0.065 -82.179
2562 0.065 -83.191 0.96 6.844 0.96 6.844 0.065 -83.192
2568 0.065 -84.205 0.96 5.69 0.96 5.69 0.065 -84.206
2574 0.065 -85.221 0.96 4.532 0.96 4.532 0.065 -85.222
2580 0.064 -86.238 0.96 3.371 0.96 3.371 0.064 -86.239
2586 0.064 -87.256 0.959 2.206 0.959 2.206 0.064 -87.257
2592 0.064 -88.274 0.959 1.037 0.959 1.037 0.064 -88.275
2598 0.063 -89.293 0.959 -0.135 0.959 -0.135 0.063 -89.293
2604 0.063 -90.311 0.959 -1.312 0.959 -1.312 0.063 -90.312
2610 0.062 -91.329 0.959 -2.492 0.959 -2.492 0.062 -91.33
2616 0.061 -92.346 0.958 -3.675 0.958 -3.675 0.061 -92.347
2622 0.061 -93.363 0.958 -4.863 0.958 -4.863 0.061 -93.364
2628 0.06 -94.377 0.958 -6.055 0.958 -6.055 0.06 -94.378
2634 0.059 -95.39 0.958 -7.25 0.958 -7.25 0.059 -95.391
2640 0.059 -96.4 0.958 -8.45 0.958 -8.45 0.059 -96.401
2646 0.058 -97.407 0.958 -9.654 0.958 -9.654 0.058 -97.408
2652 0.057 -98.41 0.957 -10.861 0.957 -10.861 0.057 -98.411
2658 0.056 -99.408 0.957 -12.073 0.957 -12.073 0.056 -99.409
2664 0.055 -100.402 0.957 -13.289 0.957 -13.289 0.055 -100.403
2670 0.054 -101.389 0.957 -14.509 0.957 -14.509 0.054 -101.39
2676 0.053 -102.369 0.957 -15.734 0.957 -15.734 0.053 -102.37
2682 0.052 -103.34 0.957 -16.962 0.957 -16.962 0.052 -103.341
2688 0.051 -104.302 0.956 -18.195 0.956 -18.195 0.051 -104.303
2694 0.049 -105.252 0.956 -19.433 0.956 -19.433 0.049 -105.253
2700 0.048 -106.19 0.956 -20.675 0.956 -20.675 0.048 -106.191
2706 0.047 -107.113 0.956 -21.921 0.956 -21.921 0.047 -107.114
2712 0.046 -108.018 0.956 -23.172 0.956 -23.172 0.046 -108.019
2718 0.044 -108.904 0.955 -24.427 0.955 -24.427 0.044 -108.905
2724 0.043 -109.767 0.955 -25.687 0.955 -25.687 0.043 -109.768
2730 0.041 -110.604 0.955 -26.952 0.955 -26.952 0.041 -110.605
2736 0.04 -111.409 0.955 -28.221 0.955 -28.221 0.04 -111.41
2742 0.038 -112.179 0.955 -29.495 0.955 -29.495 0.038 -112.18
2748 0.037 -112.907 0.954 -30.773 0.954 -30.773 0.037 -112.908
2754 0.035 -113.585 0.954 -32.057 0.954 -32.057 0.035 -113.586
2760 0.033 -114.205 0.954 -33.345 0.954 -33.345 0.033 -114.206
2766 0.032 -114.754 0.954 -34.638 0.954 -34.638 0.032 -114.755
2772 0.03 -115.22 0.954 -35.937 0.954 -35.937 0.03 -115.222
2778 0.028 -115.585 0.953 -37.24 0.953 -37.24 0.028 -115.586
2784 0.027 -115.826 0.953 -38.548 0.953 -38.548 0.027 -115.827
2790 0.025 -115.913 0.953 -39.861 0.953 -39.861 0.025 -115.915
2796 0.023 -115.81 0.953 -41.179 0.953 -41.179 0.023 -115.811
2802 0.021 -115.463 0.952 -42.502 0.952 -42.502 0.021 -115.464
2808 0.02 -114.804 0.952 -43.831 0.952 -43.831 0.02 -114.805
2814 0.018 -113.734 0.952 -45.165 0.952 -45.165 0.018 -113.735
2820 0.016 -112.117 0.952 -46.503 0.952 -46.503 0.016 -112.118
2826 0.014 -109.754 0.951 -47.848 0.951 -47.848 0.014 -109.756
2832 0.013 -106.358 0.951 -49.197 0.951 -49.197 0.013 -106.359
2838 0.011 -101.511 0.951 -50.552 0.951 -50.552 0.011 -101.512
2844 9.522e-3 -94.647 0.951 -51.913 0.951 -51.913 9.522e-3 -94.648
2850 8.335e-3 -85.123 0.95 -53.278 0.95 -53.278 8.335e-3 -85.124
2856 7.528e-3 -72.609 0.95 -54.65 0.95 -54.65 7.528e-3 -72.61
2862 7.24e-3 -57.88 0.95 -56.027 0.95 -56.027 7.24e-3 -57.881
2868 7.54e-3 -43.117 0.949 -57.409 0.949 -57.409 7.539e-3 -43.118
2874 8.368e-3 -30.528 0.949 -58.797 0.949 -58.797 8.368e-3 -30.529
2880 9.591e-3 -20.937 0.949 -60.191 0.949 -60.191 9.591e-3 -20.938
2886 0.011 -14.034 0.948 -61.591 0.948 -61.591 0.011 -14.035
2892 0.013 -9.179 0.948 -62.996 0.948 -62.996 0.013 -9.18
2898 0.015 -5.799 0.948 -64.407 0.948 -64.407 0.015 -5.8
2904 0.016 -3.474 0.947 -65.824 0.947 -65.824 0.016 -3.474
2910 0.018 -1.912 0.947 -67.247 0.947 -67.247 0.018 -1.913
2916 0.02 -0.913 0.947 -68.676 0.947 -68.676 0.02 -0.914
2922 0.022 -0.337 0.946 -70.111 0.946 -70.111 0.022 -0.338
2928 0.024 -0.087 0.946 -71.552 0.946 -71.552 0.024 -0.088
2934 0.026 -0.091 0.945 -72.999 0.945 -72.999 0.026 -0.093
2940 0.028 -0.299 0.945 -74.452 0.945 -74.452 0.028 -0.3
2946 0.03 -0.67 0.945 -75.912 0.945 -75.912 0.03 -0.671
2952 0.032 -1.176 0.944 -77.378 0.944 -77.378 0.032 -1.177
2958 0.034 -1.794 0.944 -78.85 0.944 -78.85 0.034 -1.795
2964 0.035 -2.506 0.943 -80.329 0.943 -80.329 0.035 -2.507
2970 0.037 -3.298 0.943 -81.814 0.943 -81.814 0.037 -3.3
2976 0.039 -4.159 0.943 -83.306 0.943 -83.306 0.039 -4.16
2982 0.041 -5.079 0.942 -84.804 0.942 -84.804 0.041 -5.081
2988 0.043 -6.052 0.942 -86.309 0.942 -86.309 0.043 -6.053
2994 0.044 -7.07 0.941 -87.821 0.941 -87.821 0.044 -7.071
3000 0.046 -8.129 0.941 -89.34 0.941 -89.34 0.046 -8.13
3006 0.047 -9.224 0.94 -90.866 0.94 -90.866 0.047 -9.226
3012 0.049 -10.351 0.94 -92.399 0.94 -92.399 0.049 -10.353
3018 0.05 -11.509 0.94 -93.939 0.94 -93.939 0.05 -11.51
3024 0.052 -12.692 0.939 -95.486 0.939 -95.486 0.052 -12.694
3030 0.053 -13.9 0.939 -97.041 0.939 -97.041 0.053 -13.902
3036 0.054 -15.131 0.938 -98.603 0.938 -98.603 0.054 -15.133
3042 0.056 -16.382 0.938 -100.172 0.938 -100.172 0.056 -16.384
3048 0.057 -17.651 0.937 -101.75 0.937 -101.75 0.057 -17.654
3054 0.058 -18.939 0.937 -103.335 0.937 -103.335 0.058 -18.941
3060 0.059 -20.242 0.936 -104.927 0.936 -104.927 0.059 -20.244
3066 0.06 -21.561 0.936 -106.528 0.936 -106.528 0.06 -21.563
3072 0.06 -22.893 0.935 -108.137 0.935 -108.137 0.06 -22.896
3078 0.061 -24.239 0.935 -109.754 0.935 -109.754 0.061 -24.241
3084 0.062 -25.596 0.934 -111.38 0.934 -111.38 0.062 -25.599
3090 0.062 -26.965 0.934 -113.013 0.934 -113.013 0.062 -26.968
3096 0.063 -28.345 0.933 -114.656 0.933 -114.656 0.063 -28.347
3102 0.063 -29.734 0.933 -116.307 0.933 -116.307 0.063 -29.736
3108 0.064 -31.131 0.932 -117.968 0.932 -117.968 0.064 -31.134
3114 0.064 -32.537 0.932 -119.637 0.932 -119.637 0.064 -32.54
3120 0.064 -33.95 0.932 -121.315 0.932 -121.315 0.064 -33.953
3126 0.064 -35.37 0.931 -123.003 0.931 -123.003 0.064 -35.373
3132 0.064 -36.795 0.931 -124.7 0.931 -124.7 0.064 -36.798
3138 0.063 -38.225 0.93 -126.408 0.93 -126.408 0.063 -38.228
3144 0.063 -39.658 0.93 -128.124 0.93 -128.124 0.063 -39.662
3150 0.063 -41.094 0.929 -129.851 0.929 -129.851 0.063 -41.098
3156 0.062 -42.532 0.929 -131.588 0.929 -131.588 0.062 -42.536
3162 0.061 -43.969 0.928 -133.336 0.928 -133.336 0.061 -43.974
3168 0.061 -45.406 0.928 -135.094 0.928 -135.094 0.061 -45.41
3174 0.06 -46.839 0.927 -136.863 0.927 -136.863 0.06 -46.843
3180 0.059 -48.267 0.927 -138.642 0.927 -138.642 0.059 -48.272
3186 0.057 -49.688 0.926 -140.433 0.926 -140.433 0.057 -49.693
3192 0.056 -51.099 0.926 -142.235 0.926 -142.235 0.056 -51.104
3198 0.055 -52.497 0.925 -144.048 0.925 -144.048 0.055 -52.503
3204 0.053 -53.878 0.925 -145.873 0.925 -145.873 0.053 -53.884
3210 0.052 -55.238 0.924 -147.711 0.924 -147.711 0.052 -55.245
3216 0.05 -56.572 0.924 -149.56 0.924 -149.56 0.05 -56.579
3222 0.048 -57.873 0.923 -151.421 0.923 -151.421 0.048 -57.881
3228 0.046 -59.133 0.923 -153.295 0.923 -153.295 0.046 -59.141
3234 0.044 -60.342 0.922 -155.181 0.922 -155.181 0.044 -60.351
3240 0.042 -61.488 0.922 -157.08 0.922 -157.08 0.042 -61.497
3246 0.04 -62.553 0.921 -158.993 0.921 -158.993 0.04 -62.563
3252 0.038 -63.517 0.92 -160.918 0.92 -160.918 0.038 -63.528
3258 0.035 -64.352 0.92 -162.857 0.92 -162.857 0.035 -64.364
3264 0.033 -65.02 0.919 -164.81 0.919 -164.81 0.033 -65.033
3270 0.03 -65.468 0.919 -166.777 0.919 -166.777 0.03 -65.483
3276 0.027 -65.622 0.918 -168.758 0.918 -168.758 0.027 -65.639
3282 0.025 -65.375 0.917 -170.753 0.917 -170.753 0.025 -65.393
3288 0.022 -64.562 0.917 -172.762 0.917 -172.762 0.022 -64.583
3294 0.019 -62.932 0.916 -174.787 0.916 -174.787 0.019 -62.956
3300 0.017 -60.079 0.915 -176.826 0.915 -176.826 0.017 -60.106
3306 0.014 -55.334 0.915 -178.88 0.915 -178.88 0.014 -55.364
3312 0.012 -47.625 0.914 179.05 0.914 179.05 0.012 -47.657
3318 9.789e-3 -35.495 0.913 176.964 0.913 176.964 9.781e-3 -35.523
3324 8.71e-3 -18.199 0.912 174.863 0.912 174.863 8.7e-3 -18.21
3330 8.792e-3 1.569 0.911 172.745 0.911 172.745 8.782e-3 1.584
3336 0.01 18.472 0.911 170.612 0.911 170.612 0.01 18.504
3342 0.012 30.154 0.91 168.461 0.91 168.461 0.012 30.191
3348 0.015 37.504 0.909 166.294 0.909 166.294 0.015 37.539
3354 0.017 41.964 0.908 164.11 0.908 164.11 0.017 41.996
3360 0.02 44.571 0.907 161.908 0.907 161.908 0.02 44.601
3366 0.023 45.968 0.906 159.689 0.906 159.689 0.023 45.995
3372 0.026 46.546 0.905 157.451 0.905 157.451 0.026 46.571
3378 0.029 46.55 0.904 155.196 0.904 155.196 0.029 46.573
3384 0.032 46.136 0.903 152.921 0.903 152.921 0.032 46.158
3390 0.035 45.411 0.902 150.628 0.902 150.628 0.035 45.431
3396 0.038 44.446 0.901 148.315 0.901 148.315 0.038 44.465
3402 0.041 43.293 0.9 145.983 0.9 145.983 0.041 43.311
3408 0.044 41.99 0.899 143.63 0.899 143.63 0.044 42.007
3414 0.046 40.564 0.898 141.257 0.898 141.257 0.046 40.581
3420 0.048 39.038 0.896 138.863 0.896 138.863 0.048 39.054
3426 0.051 37.427 0.895 136.446 0.895 136.446 0.051 37.443
3432 0.053 35.746 0.894 134.008 0.894 134.008 0.053 35.761
3438 0.055 34.004 0.893 131.547 0.893 131.547 0.055 34.019
3444 0.056 32.212 0.892 129.063 0.892 129.063 0.056 32.227
3450 0.058 30.377 0.89 126.555 0.89 126.555 0.058 30.391
3456 0.059 28.506 0.889 124.022 0.889 124.022 0.059 28.52
3462 0.06 26.605 0.888 121.464 0.888 121.464 0.06 26.62
3468 0.061 24.682 0.887 118.88 0.887 118.88 0.061 24.697
3474 0.061 22.742 0.885 116.268 0.885 116.268 0.061 22.757
3480 0.061 20.792 0.884 113.629 0.884 113.629 0.061 20.807
3486 0.061 18.84 0.883 110.962 0.883 110.962 0.061 18.854
3492 0.06 16.892 0.881 108.265 0.881 108.265 0.06 16.907
3498 0.06 14.959 0.88 105.537 0.88 105.537 0.06 14.975
3504 0.058 13.053 0.879 102.778 0.879 102.778 0.058 13.069
3510 0.057 11.188 0.877 99.986 0.877 99.986 0.057 11.204
3516 0.055 9.382 0.876 97.161 0.876 97.161 0.055 9.398
3522 0.053 7.659 0.874 94.301 0.874 94.301 0.053 7.676
3528 0.05 6.051 0.873 91.405 0.873 91.405 0.05 6.069
3534 0.048 4.603 0.871 88.472 0.871 88.472 0.048 4.622
3540 0.044 3.376 0.869 85.5 0.869 85.5 0.044 3.397
3546 0.041 2.462 0.868 82.489 0.868 82.489 0.041 2.484
3552 0.037 1.998 0.866 79.437 0.866 79.437 0.037 2.022
3558 0.033 2.2 0.864 76.342 0.864 76.342 0.033 2.225
3564 0.029 3.421 0.862 73.204 0.862 73.204 0.029 3.45
3570 0.025 6.272 0.86 70.021 0.86 70.021 0.025 6.304
3576 0.02 11.823 0.858 66.791 0.858 66.791 0.02 11.858
3582 0.017 21.871 0.856 63.513 0.856 63.513 0.017 21.906
3588 0.014 38.444 0.854 60.185 0.854 60.185 0.014 38.469
3594 0.014 60.152 0.852 56.806 0.852 56.806 0.014 60.154
3600 0.016 79.693 0.849 53.374 0.849 53.374 0.016 79.677
3606 0.019 92.542 0.847 49.887 0.847 49.887 0.019 92.521
3612 0.024 99.829 0.844 46.343 0.844 46.343 0.024 99.81
3618 0.029 103.654 0.841 42.739 0.841 42.739 0.029 103.637
3624 0.035 105.41 0.838 39.074 0.838 39.074 0.035 105.396
3630 0.04 105.902 0.835 35.343 0.835 35.343 0.04 105.891
3636 0.044 105.603 0.832 31.545 0.832 31.545 0.044 105.594
3642 0.049 104.806 0.828 27.676 0.828 27.676 0.049 104.799
3648 0.053 103.715 0.825 23.73 0.825 23.73 0.053 103.71
3654 0.056 102.489 0.821 19.705 0.821 19.705 0.056 102.485
3660 0.058 101.271 0.817 15.594 0.817 15.594 0.058 101.268
3666 0.06 100.216 0.813 11.391 0.813 11.391 0.06 100.215
3672 0.06 99.52 0.809 7.089 0.809 7.089 0.06 99.519
3678 0.059 99.454 0.804 2.68 0.804 2.68 0.059 99.455
3684 0.057 100.433 0.799 -1.845 0.799 -1.845 0.057 100.435
3690 0.054 103.11 0.794 -6.495 0.794 -6.495 0.054 103.113
3696 0.05 108.496 0.788 -11.282 0.788 -11.282 0.05 108.5
3702 0.047 117.884 0.782 -16.218 0.782 -16.218 0.047 117.887
3708 0.046 131.802 0.774 -21.314 0.774 -21.314 0.046 131.801
3714 0.051 147.725 0.766 -26.583 0.766 -26.583 0.051 147.718
3720 0.063 160.896 0.757 -32.035 0.757 -32.035 0.063 160.886
3726 0.082 169.073 0.747 -37.682 0.747 -37.682 0.082 169.062
3732 0.107 172.919 0.734 -43.529 0.734 -43.529 0.107 172.908
3738 0.137 173.725 0.72 -49.578 0.72 -49.578 0.137 173.715
3744 0.172 172.478 0.703 -55.826 0.703 -55.826 0.172 172.469
3750 0.211 169.818 0.683 -62.258 0.683 -62.258 0.211 169.81
3756 0.254 166.158 0.661 -68.853 0.661 -68.853 0.254 166.151
3762 0.299 161.779 0.635 -75.578 0.635 -75.578 0.299 161.772
3768 0.346 156.884 0.607 -82.388 0.607 -82.388 0.346 156.877
3774 0.394 151.633 0.576 -89.233 0.576 -89.233 0.394 151.627
3780 0.442 146.158 0.542 -96.055 0.542 -96.055 0.442 146.153
3786 0.488 140.573 0.507 -102.796 0.507 -102.796 0.488 140.567
3792 0.532 134.97 0.472 -109.399 0.472 -109.399 0.532 134.965
3798 0.574 129.427 0.436 -115.818 0.436 -115.818 0.574 129.422
3804 0.612 124.006 0.4 -122.012 0.4 -122.012 0.612 124.002
3810 0.646 118.752 0.366 -127.954 0.366 -127.954 0.646 118.748
3816 0.677 113.695 0.334 -133.626 0.334 -133.626 0.677 113.691
3822 0.705 108.855 0.303 -139.019 0.303 -139.019 0.705 108.852
3828 0.729 104.24 0.275 -144.135 0.275 -144.135 0.729 104.237
3834 0.75 99.852 0.248 -148.979 0.248 -148.979 0.75 99.848
3840 0.769 95.684 0.224 -153.562 0.224 -153.562 0.769 95.681
3846 0.786 91.73 0.202 -157.897 0.202 -157.897 0.786 91.727
3852 0.801 87.977 0.182 -161.998 0.182 -161.998 0.801 87.974
3858 0.813 84.415 0.165 -165.881 0.165 -165.881 0.813 84.413
3864 0.825 81.031 0.148 -169.561 0.148 -169.561 0.825 81.029
3870 0.835 77.813 0.134 -173.054 0.134 -173.054 0.835 77.811
3876 0.844 74.748 0.121 -176.372 0.121 -176.372 0.844 74.746
3882 0.852 71.826 0.109 -179.53 0.109 -179.53 0.852 71.824
3888 0.859 69.035 0.098 177.461 0.098 177.461 0.859 69.033
3894 0.866 66.367 0.089 174.589 0.089 174.589 0.866 66.365
3900 0.872 63.811 0.08 171.844 0.08 171.844 0.872 63.809
3906 0.877 61.36 0.073 169.217 0.073 169.217 0.877 61.358
3912 0.882 59.007 0.066 166.699 0.066 166.699 0.882 59.005
3918 0.887 56.743 0.06 164.283 0.06 164.283 0.887 56.741
3924 0.891 54.564 0.054 161.961 0.054 161.961 0.891 54.562
3930 0.894 52.463 0.049 159.727 0.049 159.727 0.895 52.461
3936 0.898 50.436 0.045 157.576 0.045 157.576 0.898 50.434
3942 0.901 48.476 0.04 155.502 0.04 155.502 0.901 48.475
3948 0.904 46.582 0.037 153.5 0.037 153.5 0.904 46.58
3954 0.907 44.747 0.033 151.566 0.033 151.566 0.907 44.745
3960 0.91 42.969 0.03 149.696 0.03 149.696 0.91 42.967
3966 0.913 41.244 0.028 147.886 0.028 147.886 0.913 41.242
3972 0.915 39.569 0.025 146.133 0.025 146.133 0.915 39.568
3978 0.917 37.942 0.023 144.434 0.023 144.434 0.917 37.941
3984 0.919 36.36 0.021 142.786 0.021 142.786 0.919 36.359
3990 0.921 34.821 0.019 141.186 0.019 141.186 0.921 34.819
3996 0.923 33.322 0.017 139.632 0.017 139.632 0.923 33.32
4002 0.925 31.861 0.016 138.122 0.016 138.122 0.925 31.86
4008 0.927 30.437 0.014 136.654 0.014 136.654 0.927 30.435
4014 0.928 29.047 0.013 135.226 0.013 135.226 0.928 29.046
4020 0.93 27.691 0.012 133.836 0.012 133.836 0.93 27.689
4026 0.932 26.366 0.011 132.482 0.011 132.482 0.932 26.365
4032 0.933 25.071 0.01 131.164 0.01 131.164 0.933 25.07
4038 0.934 23.805 9.203e-3 129.879 9.203e-3 129.879 0.934 23.804
4044 0.936 22.567 8.411e-3 128.626 8.411e-3 128.626 0.936 22.566
4050 0.937 21.356 7.689e-3 127.404 7.689e-3 127.404 0.937 21.355
4056 0.938 20.169 7.029e-3 126.212 7.029e-3 126.212 0.938 20.168
4062 0.939 19.008 6.427e-3 125.049 6.427e-3 125.049 0.939 19.007
4068 0.941 17.869 5.877e-3 123.914 5.877e-3 123.914 0.941 17.868
4074 0.942 16.753 5.374e-3 122.806 5.374e-3 122.806 0.942 16.752
4080 0.943 15.659 4.915e-3 121.725 4.915e-3 121.725 0.943 15.658
4086 0.944 14.586 4.495e-3 120.668 4.495e-3 120.668 0.944 14.585
4092 0.945 13.533 4.111e-3 119.636 4.111e-3 119.636 0.945 13.532
4098 0.946 12.499 3.759e-3 118.628 3.759e-3 118.628 0.946 12.498
4104 0.947 11.484 3.437e-3 117.644 3.437e-3 117.644 0.947 11.483
4110 0.948 10.487 3.143e-3 116.682 3.143e-3 116.682 0.948 10.486
4116 0.948 9.507 2.874e-3 115.742 2.874e-3 115.742 0.948 9.506
4122 0.949 8.544 2.627e-3 114.824 2.627e-3 114.824 0.949 8.544
4128 0.95 7.598 2.401e-3 113.927 2.401e-3 113.927 0.95 7.597
4134 0.951 6.668 2.194e-3 113.051 2.194e-3 113.051 0.951 6.667
4140 0.952 5.752 2.005e-3 112.195 2.005e-3 112.195 0.952 5.751
4146 0.952 4.852 1.831e-3 111.36 1.831e-3 111.36 0.952 4.851
4152 0.953 3.966 1.672e-3 110.544 1.672e-3 110.544 0.953 3.965
4158 0.954 3.094 1.527e-3 109.748 1.527e-3 109.748 0.954 3.093
4164 0.954 2.235 1.393e-3 108.972 1.393e-3 108.972 0.954 2.234
4170 0.955 1.389 1.271e-3 108.214 1.271e-3 108.214 0.955 1.389
4176 0.956 0.557 1.159e-3 107.476 1.159e-3 107.476 0.956 0.556
4182 0.956 -0.264 1.057e-3 106.757 1.057e-3 106.757 0.956 -0.264
4188 0.957 -1.072 962.7e-6 106.056 962.7e-6 106.056 0.957 -1.073
4194 0.958 -1.869 876.7e-6 105.375 876.7e-6 105.375 0.958 -1.869
4200 0.958 -2.654 798e-6 104.712 798e-6 104.712 0.958 -2.655
4206 0.959 -3.428 725.9e-6 104.069 725.9e-6 104.069 0.959 -3.429
4212 0.959 -4.192 659.9e-6 103.445 659.9e-6 103.445 0.959 -4.192
4218 0.96 -4.944 599.6e-6 102.84 599.6e-6 102.84 0.96 -4.945
4224 0.96 -5.687 544.3e-6 102.255 544.3e-6 102.255 0.96 -5.688
4230 0.961 -6.42 493.8e-6 101.691 493.8e-6 101.691 0.961 -6.421
4236 0.961 -7.143 447.6e-6 101.146 447.6e-6 101.146 0.961 -7.144
4242 0.962 -7.856 405.4e-6 100.623 405.4e-6 100.623 0.962 -7.857
4248 0.962 -8.561 366.8e-6 100.122 366.8e-6 100.122 0.962 -8.561
4254 0.963 -9.256 331.5e-6 99.643 331.5e-6 99.643 0.963 -9.257
4260 0.963 -9.943 299.4e-6 99.187 299.4e-6 99.187 0.963 -9.943
4266 0.964 -10.62 270e-6 98.755 270e-6 98.755 0.964 -10.621
4272 0.964 -11.29 243.2e-6 98.349 243.2e-6 98.349 0.964 -11.29
4278 0.965 -11.951 218.8e-6 97.97 218.8e-6 97.97 0.965 -11.952
4284 0.965 -12.605 196.6e-6 97.619 196.6e-6 97.619 0.965 -12.605
4290 0.965 -13.25 176.3e-6 97.299 176.3e-6 97.299 0.965 -13.251
4296 0.966 -13.888 157.9e-6 97.011 157.9e-6 97.011 0.966 -13.888
4302 0.966 -14.518 141.1e-6 96.757 141.1e-6 96.757 0.966 -14.519
4308 0.967 -15.141 125.9e-6 96.542 125.9e-6 96.542 0.967 -15.142
4314 0.967 -15.757 112.1e-6 96.368 112.1e-6 96.368 0.967 -15.758
4320 0.967 -16.366 99.62e-6 96.24 99.62e-6 96.24 0.967 -16.366
4326 0.968 -16.968 88.28e-6 96.162 88.28e-6 96.162 0.968 -16.969
4332 0.968 -17.563 78.03e-6 96.14 78.03e-6 96.14 0.968 -17.564
4338 0.968 -18.152 68.77e-6 96.183 68.77e-6 96.183 0.968 -18.153
4344 0.969 -18.734 60.42e-6 96.298 60.42e-6 96.298 0.969 -18.735
4350 0.969 -19.31 52.89e-6 96.496 52.89e-6 96.496 0.969 -19.311
4356 0.969 -19.88 46.12e-6 96.791 46.12e-6 96.791 0.969 -19.881
4362 0.97 -20.444 40.05e-6 97.2 40.05e-6 97.2 0.97 -20.444
4368 0.97 -21.002 34.61e-6 97.745 34.61e-6 97.745 0.97 -21.002
4374 0.97 -21.554 29.74e-6 98.453 29.74e-6 98.453 0.97 -21.554
4380 0.971 -22.1 25.41e-6 99.362 25.41e-6 99.362 0.971 -22.1
4386 0.971 -22.641 21.55e-6 100.52 21.55e-6 100.52 0.971 -22.641
4392 0.971 -23.176 18.14e-6 101.995 18.14e-6 101.995 0.971 -23.176
4398 0.971 -23.706 15.14e-6 103.881 15.14e-6 103.881 0.971 -23.706
4404 0.972 -24.23 12.5e-6 106.308 12.5e-6 106.308 0.972 -24.231
4410 0.972 -24.749 10.21e-6 109.471 10.21e-6 109.471 0.972 -24.75
4416 0.972 -25.264 8.238e-6 113.649 8.238e-6 113.649 0.972 -25.264
4422 0.973 -25.773 6.57e-6 119.26 6.57e-6 119.26 0.973 -25.773
4428 0.973 -26.277 5.198e-6 126.891 5.198e-6 126.891 0.973 -26.278
4434 0.973 -26.777 4.124e-6 137.266 4.124e-6 137.266 0.973 -26.777
4440 0.973 -27.271 3.36e-6 150.895 3.36e-6 150.895 0.973 -27.272
4446 0.974 -27.761 2.911e-6 167.199 2.911e-6 167.199 0.974 -27.762
4452 0.974 -28.247 2.744e-6 -176.084 2.744e-6 -176.084 0.974 -28.247
4458 0.974 -28.728 2.774e-6 -161.516 2.774e-6 -161.516 0.974 -28.728
4464 0.974 -29.205 2.904e-6 -150.134 2.904e-6 -150.134 0.974 -29.205
4470 0.975 -29.677 3.062e-6 -141.613 3.062e-6 -141.613 0.975 -29.677
4476 0.975 -30.145 3.206e-6 -135.231 3.206e-6 -135.231 0.975 -30.145
4482 0.975 -30.608 3.315e-6 -130.346 3.315e-6 -130.346 0.975 -30.609
4488 0.975 -31.068 3.38e-6 -126.491 3.38e-6 -126.491 0.975 -31.068
4494 0.975 -31.524 3.401e-6 -123.345 3.401e-6 -123.345 0.975 -31.524
4500 0.976 -31.975 3.379e-6 -120.684 3.379e-6 -120.684 0.976 -31.976
4506 0.976 -32.423 3.317e-6 -118.347 3.317e-6 -118.347 0.976 -32.423
4512 0.976 -32.867 3.219e-6 -116.213 3.219e-6 -116.213 0.976 -32.867
4518 0.976 -33.307 3.089e-6 -114.184 3.089e-6 -114.184 0.976 -33.307
4524 0.976 -33.743 2.934e-6 -112.175 2.934e-6 -112.175 0.976 -33.743
4530 0.977 -34.175 2.756e-6 -110.104 2.756e-6 -110.104 0.977 -34.176
4536 0.977 -34.604 2.561e-6 -107.881 2.561e-6 -107.881 0.977 -34.604
4542 0.977 -35.029 2.352e-6 -105.404 2.352e-6 -105.404 0.977 -35.03
4548 0.977 -35.451 2.135e-6 -102.543 2.135e-6 -102.543 0.977 -35.451
4554 0.977 -35.869 1.913e-6 -99.121 1.913e-6 -99.121 0.977 -35.87
4560 0.978 -36.284 1.692e-6 -94.893 1.692e-6 -94.893 0.978 -36.285
4566 0.978 -36.696 1.477e-6 -89.508 1.477e-6 -89.508 0.978 -36.696
4572 0.978 -37.104 1.276e-6 -82.473 1.276e-6 -82.473 0.978 -37.104
4578 0.978 -37.509 1.099e-6 -73.148 1.099e-6 -73.148 0.978 -37.509
4584 0.978 -37.911 960.3e-9 -60.931 960.3e-9 -60.931 0.978 -37.911
4590 0.979 -38.309 876.7e-9 -45.852 876.7e-9 -45.852 0.979 -38.309
4596 0.979 -38.705 861.2e-9 -29.378 861.2e-9 -29.378 0.979 -38.705
4602 0.979 -39.097 912.6e-9 -13.989 912.6e-9 -13.989 0.979 -39.097
4608 0.979 -39.486 1.016e-6 -1.384 1.016e-6 -1.384 0.979 -39.486
4614 0.979 -39.872 1.152e-6 8.228 1.152e-6 8.228 0.979 -39.873
4620 0.979 -40.256 1.307e-6 15.401 1.307e-6 15.401 0.979 -40.256
4626 0.98 -40.636 1.469e-6 20.784 1.469e-6 20.784 0.98 -40.636
4632 0.98 -41.014 1.632e-6 24.889 1.632e-6 24.889 0.98 -41.014
4638 0.98 -41.388 1.793e-6 28.08 1.793e-6 28.08 0.98 -41.389
4644 0.98 -41.76 1.949e-6 30.606 1.949e-6 30.606 0.98 -41.761
4650 0.98 -42.129 2.097e-6 32.638 2.097e-6 32.638 0.98 -42.13
4656 0.98 -42.496 2.237e-6 34.296 2.237e-6 34.296 0.98 -42.496
4662 0.98 -42.86 2.368e-6 35.667 2.368e-6 35.667 0.98 -42.86
4668 0.981 -43.221 2.489e-6 36.812 2.489e-6 36.812 0.981 -43.221
4674 0.981 -43.579 2.6e-6 37.777 2.6e-6 37.777 0.981 -43.579
4680 0.981 -43.935 2.701e-6 38.598 2.701e-6 38.598 0.981 -43.935
4686 0.981 -44.289 2.792e-6 39.302 2.792e-6 39.302 0.981 -44.289
4692 0.981 -44.639 2.872e-6 39.909 2.872e-6 39.909 0.981 -44.64
4698 0.981 -44.988 2.942e-6 40.435 2.942e-6 40.435 0.981 -44.988
4704 0.981 -45.334 3.002e-6 40.895 3.002e-6 40.895 0.981 -45.334
4710 0.982 -45.677 3.052e-6 41.299 3.052e-6 41.299 0.982 -45.677
4716 0.982 -46.018 3.092e-6 41.656 3.092e-6 41.656 0.982 -46.019
4722 0.982 -46.357 3.123e-6 41.974 3.123e-6 41.974 0.982 -46.357
4728 0.982 -46.693 3.144e-6 42.259 3.144e-6 42.259 0.982 -46.694
4734 0.982 -47.028 3.157e-6 42.517 3.157e-6 42.517 0.982 -47.028
4740 0.982 -47.36 3.16e-6 42.752 3.16e-6 42.752 0.982 -47.36
4746 0.982 -47.689 3.156e-6 42.969 3.156e-6 42.969 0.982 -47.689
4752 0.982 -48.017 3.143e-6 43.171 3.143e-6 43.171 0.982 -48.017
4758 0.983 -48.342 3.123e-6 43.362 3.123e-6 43.362 0.983 -48.342
4764 0.983 -48.665 3.095e-6 43.545 3.095e-6 43.545 0.983 -48.665
4770 0.983 -48.986 3.06e-6 43.723 3.06e-6 43.723 0.983 -48.986
4776 0.983 -49.305 3.018e-6 43.899 3.018e-6 43.899 0.983 -49.305
4782 0.983 -49.621 2.97e-6 44.075 2.97e-6 44.075 0.983 -49.622
4788 0.983 -49.936 2.916e-6 44.256 2.916e-6 44.256 0.983 -49.936
4794 0.983 -50.249 2.856e-6 44.442 2.856e-6 44.442 0.983 -50.249
4800 0.983 -50.559 2.791e-6 44.638 2.791e-6 44.638 0.983 -50.559
4806 0.983 -50.868 2.721e-6 44.846 2.721e-6 44.846 0.983 -50.868
4812 0.984 -51.175 2.646e-6 45.07 2.646e-6 45.07 0.984 -51.175
4818 0.984 -51.479 2.567e-6 45.314 2.567e-6 45.314 0.984 -51.479
4824 0.984 -51.782 2.484e-6 45.582 2.484e-6 45.582 0.984 -51.782
4830 0.984 -52.083 2.397e-6 45.878 2.397e-6 45.878 0.984 -52.083
4836 0.984 -52.382 2.307e-6 46.208 2.307e-6 46.208 0.984 -52.382
4842 0.984 -52.679 2.214e-6 46.578 2.214e-6 46.578 0.984 -52.679
4848 0.984 -52.974 2.118e-6 46.996 2.118e-6 46.996 0.984 -52.975
4854 0.984 -53.268 2.019e-6 47.47 2.019e-6 47.47 0.984 -53.268
4860 0.984 -53.56 1.919e-6 48.011 1.919e-6 48.011 0.984 -53.56
4866 0.985 -53.85 1.816e-6 48.632 1.816e-6 48.632 0.985 -53.85
4872 0.985 -54.138 1.712e-6 49.35 1.712e-6 49.35 0.985 -54.138
4878 0.985 -54.424 1.607e-6 50.183 1.607e-6 50.183 0.985 -54.424
4884 0.985 -54.709 1.5e-6 51.159 1.5e-6 51.159 0.985 -54.709
4890 0.985 -54.992 1.394e-6 52.311 1.394e-6 52.311 0.985 -54.992
4896 0.985 -55.273 1.287e-6 53.682 1.287e-6 53.682 0.985 -55.274
4902 0.985 -55.553 1.18e-6 55.331 1.18e-6 55.331 0.985 -55.553
4908 0.985 -55.831 1.075e-6 57.338 1.075e-6 57.338 0.985 -55.831
4914 0.985 -56.107 970.3e-9 59.812 970.3e-9 59.812 0.985 -56.108
4920 0.985 -56.382 868.3e-9 62.907 868.3e-9 62.907 0.985 -56.382
4926 0.985 -56.655 769.7e-9 66.841 769.7e-9 66.841 0.985 -56.656
4932 0.986 -56.927 676.2e-9 71.924 676.2e-9 71.924 0.986 -56.927
4938 0.986 -57.197 590.3e-9 78.576 590.3e-9 78.576 0.986 -57.197
4944 0.986 -57.466 515.7e-9 87.319 515.7e-9 87.319 0.986 -57.466
4950 0.986 -57.732 457.5e-9 98.606 457.5e-9 98.606 0.986 -57.733
4956 0.986 -57.998 422.2e-9 112.372 422.2e-9 112.372 0.986 -57.998
4962 0.986 -58.262 415.1e-9 127.468 415.1e-9 127.468 0.986 -58.262
4968 0.986 -58.524 436.8e-9 141.907 436.8e-9 141.907 0.986 -58.525
4974 0.986 -58.785 482.7e-9 154.139 482.7e-9 154.139 0.986 -58.785
4980 0.986 -59.045 546e-9 163.755 546e-9 163.755 0.986 -59.045
4986 0.986 -59.303 620.7e-9 171.093 620.7e-9 171.093 0.986 -59.303
4992 0.986 -59.56 702.5e-9 176.68 702.5e-9 176.68 0.986 -59.56
4998 0.986 -59.815 788.5e-9 -179.021 788.5e-9 -179.021 0.986 -59.815
5004 0.987 -60.069 876.8e-9 -175.661 876.8e-9 -175.661 0.987 -60.069
5010 0.987 -60.321 966.4e-9 -172.993 966.4e-9 -172.993 0.987 -60.321
5016 0.987 -60.572 1.056e-6 -170.844 1.056e-6 -170.844 0.987 -60.572
5022 0.987 -60.822 1.146e-6 -169.09 1.146e-6 -169.09 0.987 -60.822
5028 0.987 -61.07 1.234e-6 -167.64 1.234e-6 -167.64 0.987 -61.07
5034 0.987 -61.317 1.322e-6 -166.432 1.322e-6 -166.432 0.987 -61.318
5040 0.987 -61.563 1.409e-6 -165.415 1.409e-6 -165.415 0.987 -61.563
5046 0.987 -61.808 1.494e-6 -164.554 1.494e-6 -164.554 0.987 -61.808
5052 0.987 -62.051 1.577e-6 -163.821 1.577e-6 -163.821 0.987 -62.051
5058 0.987 -62.292 1.658e-6 -163.193 1.658e-6 -163.193 0.987 -62.293
5064 0.987 -62.533 1.738e-6 -162.654 1.738e-6 -162.654 0.987 -62.533
5070 0.987 -62.772 1.816e-6 -162.19 1.816e-6 -162.19 0.987 -62.773
5076 0.987 -63.01 1.892e-6 -161.789 1.892e-6 -161.789 0.987 -63.011
5082 0.987 -63.247 1.965e-6 -161.442 1.965e-6 -161.442 0.987 -63.247
5088 0.988 -63.483 2.037e-6 -161.143 2.037e-6 -161.143 0.988 -63.483
5094 0.988 -63.717 2.106e-6 -160.885 2.106e-6 -160.885 0.988 -63.717
5100 0.988 -63.95 2.173e-6 -160.662 2.173e-6 -160.662 0.988 -63.951
5106 0.988 -64.182 2.238e-6 -160.471 2.238e-6 -160.471 0.988 -64.183
5112 0.988 -64.413 2.301e-6 -160.307 2.301e-6 -160.307 0.988 -64.413
5118 0.988 -64.643 2.361e-6 -160.168 2.361e-6 -160.168 0.988 -64.643
5124 0.988 -64.871 2.419e-6 -160.05 2.419e-6 -160.05 0.988 -64.871
5130 0.988 -65.099 2.475e-6 -159.952 2.475e-6 -159.952 0.988 -65.099
5136 0.988 -65.325 2.528e-6 -159.871 2.528e-6 -159.871 0.988 -65.325
5142 0.988 -65.55 2.579e-6 -159.806 2.579e-6 -159.806 0.988 -65.55
5148 0.988 -65.774 2.628e-6 -159.755 2.628e-6 -159.755 0.988 -65.774
5154 0.988 -65.997 2.675e-6 -159.716 2.675e-6 -159.716 0.988 -65.997
5160 0.988 -66.218 2.719e-6 -159.689 2.719e-6 -159.689 0.988 -66.218
5166 0.988 -66.439 2.761e-6 -159.672 2.761e-6 -159.672 0.988 -66.439
5172 0.988 -66.658 2.8e-6 -159.664 2.8e-6 -159.664 0.988 -66.659
5178 0.989 -66.877 2.837e-6 -159.665 2.837e-6 -159.665 0.989 -66.877
5184 0.989 -67.094 2.873e-6 -159.674 2.873e-6 -159.674 0.989 -67.094
5190 0.989 -67.311 2.905e-6 -159.689 2.905e-6 -159.689 0.989 -67.311
5196 0.989 -67.526 2.936e-6 -159.711 2.936e-6 -159.711 0.989 -67.526
5202 0.989 -67.74 2.964e-6 -159.739 2.964e-6 -159.739 0.989 -67.74
5208 0.989 -67.954 2.99e-6 -159.772 2.99e-6 -159.772 0.989 -67.954
5214 0.989 -68.166 3.014e-6 -159.81 3.014e-6 -159.81 0.989 -68.166
5220 0.989 -68.377 3.036e-6 -159.852 3.036e-6 -159.852 0.989 -68.377
5226 0.989 -68.587 3.056e-6 -159.898 3.056e-6 -159.898 0.989 -68.587
5232 0.989 -68.796 3.074e-6 -159.948 3.074e-6 -159.948 0.989 -68.797
5238 0.989 -69.005 3.089e-6 -160.001 3.089e-6 -160.001 0.989 -69.005
5244 0.989 -69.212 3.103e-6 -160.057 3.103e-6 -160.057 0.989 -69.212
5250 0.989 -69.418 3.114e-6 -160.116 3.114e-6 -160.116 0.989 -69.418
5256 0.989 -69.624 3.124e-6 -160.177 3.124e-6 -160.177 0.989 -69.624
5262 0.989 -69.828 3.132e-6 -160.24 3.132e-6 -160.24 0.989 -69.828
5268 0.989 -70.031 3.137e-6 -160.305 3.137e-6 -160.305 0.989 -70.031
5274 0.989 -70.234 3.141e-6 -160.372 3.141e-6 -160.372 0.989 -70.234
5280 0.989 -70.435 3.143e-6 -160.44 3.143e-6 -160.44 0.989 -70.436
5286 0.99 -70.636 3.143e-6 -160.51 3.143e-6 -160.51 0.99 -70.636
5292 0.99 -70.836 3.141e-6 -160.58 3.141e-6 -160.58 0.99 -70.836
5298 0.99 -71.035 3.138e-6 -160.652 3.138e-6 -160.652 0.99 -71.035
5304 0.99 -71.233 3.133e-6 -160.724 3.133e-6 -160.724 0.99 -71.233
5310 0.99 -71.43 3.126e-6 -160.797 3.126e-6 -160.797 0.99 -71.43
5316 0.99 -71.626 3.117e-6 -160.87 3.117e-6 -160.87 0.99 -71.626
5322 0.99 -71.821 3.107e-6 -160.944 3.107e-6 -160.944 0.99 -71.821
5328 0.99 -72.015 3.095e-6 -161.018 3.095e-6 -161.018 0.99 -72.015
5334 0.99 -72.209 3.082e-6 -161.091 3.082e-6 -161.091 0.99 -72.209
5340 0.99 -72.402 3.067e-6 -161.165 3.067e-6 -161.165 0.99 -72.402
5346 0.99 -72.593 3.051e-6 -161.238 3.051e-6 -161.238 0.99 -72.593
5352 0.99 -72.784 3.033e-6 -161.311 3.033e-6 -161.311 0.99 -72.784
5358 0.99 -72.974 3.014e-6 -161.383 3.014e-6 -161.383 0.99 -72.974
5364 0.99 -73.164 2.993e-6 -161.454 2.993e-6 -161.454 0.99 -73.164
5370 0.99 -73.352 2.971e-6 -161.525 2.971e-6 -161.525 0.99 -73.352
5376 0.99 -73.54 2.948e-6 -161.595 2.948e-6 -161.595 0.99 -73.54
5382 0.99 -73.727 2.923e-6 -161.663 2.923e-6 -161.663 0.99 -73.727
5388 0.99 -73.913 2.898e-6 -161.73 2.898e-6 -161.73 0.99 -73.913
5394 0.99 -74.098 2.871e-6 -161.796 2.871e-6 -161.796 0.99 -74.098
5400 0.99 -74.282 2.842e-6 -161.86 2.842e-6 -161.86 0.99 -74.282
5406 0.99 -74.466 2.813e-6 -161.923 2.813e-6 -161.923 0.99 -74.466
5412 0.99 -74.649 2.782e-6 -161.984 2.782e-6 -161.984 0.99 -74.649
5418 0.991 -74.831 2.751e-6 -162.043 2.751e-6 -162.043 0.991 -74.831
5424 0.991 -75.012 2.718e-6 -162.099 2.718e-6 -162.099 0.991 -75.012
5430 0.991 -75.193 2.685e-6 -162.154 2.685e-6 -162.154 0.991 -75.193
5436 0.991 -75.372 2.65e-6 -162.205 2.65e-6 -162.205 0.991 -75.372
5442 0.991 -75.551 2.614e-6 -162.255 2.614e-6 -162.255 0.991 -75.551
5448 0.991 -75.73 2.578e-6 -162.301 2.578e-6 -162.301 0.991 -75.73
5454 0.991 -75.907 2.541e-6 -162.344 2.541e-6 -162.344 0.991 -75.907
5460 0.991 -76.084 2.502e-6 -162.384 2.502e-6 -162.384 0.991 -76.084
5466 0.991 -76.26 2.463e-6 -162.42 2.463e-6 -162.42 0.991 -76.26
5472 0.991 -76.435 2.423e-6 -162.452 2.423e-6 -162.452 0.991 -76.435
5478 0.991 -76.61 2.383e-6 -162.481 2.383e-6 -162.481 0.991 -76.61
5484 0.991 -76.784 2.341e-6 -162.504 2.341e-6 -162.504 0.991 -76.784
5490 0.991 -76.957 2.299e-6 -162.524 2.299e-6 -162.524 0.991 -76.957
5496 0.991 -77.129 2.256e-6 -162.538 2.256e-6 -162.538 0.991 -77.129
5502 0.991 -77.301 2.213e-6 -162.547 2.213e-6 -162.547 0.991 -77.301
5508 0.991 -77.472 2.169e-6 -162.55 2.169e-6 -162.55 0.991 -77.472
5514 0.991 -77.642 2.124e-6 -162.547 2.124e-6 -162.547 0.991 -77.642
5520 0.991 -77.812 2.079e-6 -162.537 2.079e-6 -162.537 0.991 -77.812
5526 0.991 -77.981 2.034e-6 -162.521 2.034e-6 -162.521 0.991 -77.981
5532 0.991 -78.149 1.987e-6 -162.496 1.987e-6 -162.496 0.991 -78.149
5538 0.991 -78.317 1.941e-6 -162.463 1.941e-6 -162.463 0.991 -78.317
5544 0.991 -78.484 1.893e-6 -162.421 1.893e-6 -162.421 0.991 -78.484
5550 0.991 -78.65 1.846e-6 -162.37 1.846e-6 -162.37 0.991 -78.65
5556 0.991 -78.816 1.798e-6 -162.307 1.798e-6 -162.307 0.991 -78.816
5562 0.991 -78.981 1.75e-6 -162.234 1.75e-6 -162.234 0.991 -78.981
5568 0.992 -79.145 1.701e-6 -162.147 1.701e-6 -162.147 0.992 -79.145
5574 0.992 -79.309 1.652e-6 -162.048 1.652e-6 -162.048 0.992 -79.309
5580 0.992 -79.472 1.603e-6 -161.933 1.603e-6 -161.933 0.992 -79.472
5586 0.992 -79.634 1.553e-6 -161.801 1.553e-6 -161.801 0.992 -79.634
5592 0.992 -79.796 1.503e-6 -161.652 1.503e-6 -161.652 0.992 -79.796
5598 0.992 -79.957 1.453e-6 -161.483 1.453e-6 -161.483 0.992 -79.957
5604 0.992 -80.117 1.403e-6 -161.291 1.403e-6 -161.291 0.992 -80.118
5610 0.992 -80.277 1.353e-6 -161.075 1.353e-6 -161.075 0.992 -80.277
5616 0.992 -80.437 1.302e-6 -160.832 1.302e-6 -160.832 0.992 -80.437
5622 0.992 -80.595 1.251e-6 -160.557 1.251e-6 -160.557 0.992 -80.595
5628 0.992 -80.753 1.201e-6 -160.248 1.201e-6 -160.248 0.992 -80.753
5634 0.992 -80.911 1.15e-6 -159.901 1.15e-6 -159.901 0.992 -80.911
5640 0.992 -81.068 1.099e-6 -159.508 1.099e-6 -159.508 0.992 -81.068
5646 0.992 -81.224 1.048e-6 -159.065 1.048e-6 -159.065 0.992 -81.224
5652 0.992 -81.379 997.4e-9 -158.564 997.4e-9 -158.564 0.992 -81.38
5658 0.992 -81.534 946.7e-9 -157.995 946.7e-9 -157.995 0.992 -81.535
5664 0.992 -81.689 896.1e-9 -157.348 896.1e-9 -157.348 0.992 -81.689
5670 0.992 -81.843 845.6e-9 -156.609 845.6e-9 -156.609 0.992 -81.843
5676 0.992 -81.996 795.4e-9 -155.761 795.4e-9 -155.761 0.992 -81.996
5682 0.992 -82.149 745.5e-9 -154.783 745.5e-9 -154.783 0.992 -82.149
5688 0.992 -82.301 695.8e-9 -153.649 695.8e-9 -153.649 0.992 -82.301
5694 0.992 -82.453 646.6e-9 -152.325 646.6e-9 -152.325 0.992 -82.453
5700 0.992 -82.604 598e-9 -150.766 598e-9 -150.766 0.992 -82.604
5706 0.992 -82.754 550e-9 -148.915 550e-9 -148.915 0.992 -82.754
5712 0.992 -82.904 502.8e-9 -146.696 502.8e-9 -146.696 0.992 -82.904
5718 0.992 -83.053 456.8e-9 -144.005 456.8e-9 -144.005 0.992 -83.053
5724 0.992 -83.202 412.2e-9 -140.703 412.2e-9 -140.703 0.992 -83.202
5730 0.992 -83.35 369.5e-9 -136.603 369.5e-9 -136.603 0.992 -83.351
5736 0.992 -83.498 329.5e-9 -131.456 329.5e-9 -131.456 0.992 -83.498
5742 0.992 -83.645 293e-9 -124.95 293e-9 -124.95 0.992 -83.645
5748 0.992 -83.792 261.7e-9 -116.745 261.7e-9 -116.745 0.992 -83.792
5754 0.993 -83.938 237.3e-9 -106.603 237.3e-9 -106.603 0.993 -83.938
5760 0.993 -84.084 222.1e-9 -94.653 222.1e-9 -94.653 0.993 -84.084
5766 0.993 -84.229 217.8e-9 -81.659 217.8e-9 -81.659 0.993 -84.229
5772 0.993 -84.373 225e-9 -68.895 225e-9 -68.895 0.993 -84.373
5778 0.993 -84.517 242.4e-9 -57.512 242.4e-9 -57.512 0.993 -84.517
5784 0.993 -84.661 268.1e-9 -48.043 268.1e-9 -48.043 0.993 -84.661
5790 0.993 -84.804 299.6e-9 -40.453 299.6e-9 -40.453 0.993 -84.804
5796 0.993 -84.946 335.3e-9 -34.448 335.3e-9 -34.448 0.993 -84.946
5802 0.993 -85.088 373.9e-9 -29.688 373.9e-9 -29.688 0.993 -85.088
5808 0.993 -85.23 414.4e-9 -25.882 414.4e-9 -25.882 0.993 -85.23
5814 0.993 -85.371 456.3e-9 -22.803 456.3e-9 -22.803 0.993 -85.371
5820 0.993 -85.511 499e-9 -20.282 499e-9 -20.282 0.993 -85.511
5826 0.993 -85.651 542.4e-9 -18.193 542.4e-9 -18.193 0.993 -85.651
5832 0.993 -85.791 586.1e-9 -16.443 586.1e-9 -16.443 0.993 -85.791
5838 0.993 -85.93 630.1e-9 -14.963 630.1e-9 -14.963 0.993 -85.93
5844 0.993 -86.068 674.2e-9 -13.701 674.2e-9 -13.701 0.993 -86.068
5850 0.993 -86.206 718.3e-9 -12.616 718.3e-9 -12.616 0.993 -86.206
5856 0.993 -86.344 762.4e-9 -11.677 762.4e-9 -11.677 0.993 -86.344
5862 0.993 -86.481 806.4e-9 -10.859 806.4e-9 -10.859 0.993 -86.481
5868 0.993 -86.617 850.1e-9 -10.143 850.1e-9 -10.143 0.993 -86.618
5874 0.993 -86.754 893.7e-9 -9.514 893.7e-9 -9.514 0.993 -86.754
5880 0.993 -86.889 937.1e-9 -8.958 937.1e-9 -8.958 0.993 -86.889
5886 0.993 -87.024 980.2e-9 -8.466 980.2e-9 -8.466 0.993 -87.024
5892 0.993 -87.159 1.023e-6 -8.029 1.023e-6 -8.029 0.993 -87.159
5898 0.993 -87.293 1.066e-6 -7.64 1.066e-6 -7.64 0.993 -87.293
5904 0.993 -87.427 1.108e-6 -7.293 1.108e-6 -7.293 0.993 -87.427
5910 0.993 -87.561 1.15e-6 -6.982 1.15e-6 -6.982 0.993 -87.561
5916 0.993 -87.693 1.191e-6 -6.705 1.191e-6 -6.705 0.993 -87.694
5922 0.993 -87.826 1.232e-6 -6.456 1.232e-6 -6.456 0.993 -87.826
5928 0.993 -87.958 1.273e-6 -6.233 1.273e-6 -6.233 0.993 -87.958
5934 0.993 -88.089 1.314e-6 -6.034 1.314e-6 -6.034 0.993 -88.09
5940 0.993 -88.221 1.354e-6 -5.855 1.354e-6 -5.855 0.993 -88.221
5946 0.993 -88.351 1.394e-6 -5.695 1.394e-6 -5.695 0.993 -88.351
5952 0.993 -88.481 1.433e-6 -5.552 1.433e-6 -5.552 0.993 -88.482
5958 0.993 -88.611 1.472e-6 -5.425 1.472e-6 -5.425 0.993 -88.611
5964 0.993 -88.741 1.51e-6 -5.312 1.51e-6 -5.312 0.993 -88.741
5970 0.993 -88.87 1.548e-6 -5.211 1.548e-6 -5.211 0.993 -88.87
5976 0.993 -88.998 1.586e-6 -5.122 1.586e-6 -5.122 0.993 -88.998
5982 0.994 -89.126 1.623e-6 -5.044 1.623e-6 -5.044 0.994 -89.126
5988 0.994 -89.254 1.66e-6 -4.976 1.66e-6 -4.976 0.994 -89.254
5994 0.994 -89.381 1.696e-6 -4.917 1.696e-6 -4.917 0.994 -89.381
6000 0.994 -89.508 1.732e-6 -4.866 1.732e-6 -4.866 0.994 -89.508
